% Dataset generado por EcoFinance para validacion en Weka Explorer
% Abrir este archivo en Weka Explorer > Preprocess
% Class attribute: target_high_risk {0,1}

@relation ecofinance_risk_training

@attribute expense numeric
@attribute income numeric
@attribute investment numeric
@attribute tx_count numeric
@attribute avg_amount numeric
@attribute outflow numeric
@attribute spend_income_ratio numeric
@attribute net_balance numeric
@attribute target_high_risk {0,1}

@data
1465.480000,1710.120000,0.000000,13.000000,244.276923,1465.480000,0.856946,244.640000,0
1139.990000,1790.610000,135.760000,17.000000,180.374118,1275.750000,0.712467,514.860000,0
1238.480000,1714.120000,82.930000,19.000000,159.764737,1321.410000,0.770897,392.710000,0
1317.260000,1681.040000,62.740000,14.000000,218.645714,1380.000000,0.820920,301.040000,0
1211.090000,1750.820000,71.080000,15.000000,202.199333,1282.170000,0.732325,468.650000,0
1366.600000,1699.130000,60.970000,15.000000,208.446667,1427.570000,0.840177,271.560000,0
1748.330000,2027.350000,108.990000,20.000000,194.233500,1857.320000,0.916132,170.030000,1
1507.060000,1734.100000,68.940000,12.000000,275.841667,1576.000000,0.908829,158.100000,1
1328.150000,1777.550000,84.250000,17.000000,187.644118,1412.400000,0.794577,365.150000,0
1589.410000,1821.810000,83.950000,15.000000,233.011333,1673.360000,0.918515,148.450000,1
1325.590000,1800.010000,76.450000,12.000000,266.837500,1402.040000,0.778907,397.970000,0
371380.920000,1151558.240000,11400049.210000,20.000000,646149.418500,11771430.130000,10.222175,-10619871.890000,1
1448.320000,1987.180000,132.790000,16.000000,223.018125,1581.110000,0.795655,406.070000,0
1733.390000,2171.910000,167.880000,19.000000,214.377895,1901.270000,0.875391,270.640000,0
1313.210000,1969.240000,108.070000,14.000000,242.180000,1421.280000,0.721740,547.960000,0
1585.320000,2230.540000,0.000000,17.000000,224.462353,1585.320000,0.710734,645.220000,0
1621.920000,2116.070000,289.610000,15.000000,268.506667,1911.530000,0.903340,204.540000,1
1707.790000,2127.080000,139.650000,12.000000,331.210000,1847.440000,0.868533,279.640000,0
1561.690000,2241.920000,142.270000,10.000000,394.588000,1703.960000,0.760045,537.960000,0
1833.660000,2184.860000,139.670000,15.000000,277.212667,1973.330000,0.903184,211.530000,1
1864.110000,2030.710000,135.840000,12.000000,335.888333,1999.950000,0.984853,30.760000,1
1699.480000,2256.430000,152.410000,11.000000,373.483636,1851.890000,0.820717,404.540000,0
1471.530000,2247.260000,161.360000,18.000000,215.563889,1632.890000,0.726614,614.370000,0
1251763.050000,2170.650000,250148.670000,20.000000,75204.118500,1501911.720000,691.917960,-1499741.070000,1
581.980000,651.640000,1.030000,18.000000,68.591667,583.010000,0.894681,68.630000,0
505.650000,576.570000,0.000000,13.000000,83.247692,505.650000,0.876997,70.920000,0
498.340000,490.920000,0.480000,11.000000,89.976364,498.820000,1.016092,-7.900000,1
514.050000,559.560000,1.840000,19.000000,56.602632,515.890000,0.921957,43.670000,1
483.850000,583.710000,0.000000,20.000000,53.378000,483.850000,0.828922,99.860000,0
570.800000,581.560000,1.930000,14.000000,82.449286,572.730000,0.984817,8.830000,1
466.870000,555.020000,0.870000,20.000000,51.138000,467.740000,0.842744,87.280000,0
408.530000,487.810000,0.680000,14.000000,64.072857,409.210000,0.838872,78.600000,0
519.060000,661.540000,1.160000,17.000000,69.515294,520.220000,0.786377,141.320000,0
458.130000,478.530000,0.770000,19.000000,49.338421,458.900000,0.958979,19.630000,1
437.790000,541.770000,0.520000,16.000000,61.255000,438.310000,0.809033,103.460000,0
418.080000,475.380000,0.620000,21.000000,42.575238,418.700000,0.880769,56.680000,0
2561.710000,2680.010000,0.000000,20.000000,262.086000,2561.710000,0.955858,118.300000,1
1731.760000,2142.480000,0.000000,17.000000,227.896471,1731.760000,0.808297,410.720000,0
2182.130000,2334.410000,0.000000,13.000000,347.426154,2182.130000,0.934767,152.280000,1
2202.900000,2410.640000,0.000000,11.000000,419.412727,2202.900000,0.913824,207.740000,1
1845.410000,2065.660000,0.000000,20.000000,195.553500,1845.410000,0.893375,220.250000,0
1990.360000,2288.620000,0.000000,15.000000,285.265333,1990.360000,0.869677,298.260000,0
2125.020000,2505.910000,0.000000,19.000000,243.733158,2125.020000,0.848003,380.890000,0
2066.970000,2706.370000,0.000000,13.000000,367.180000,2066.970000,0.763743,639.400000,0
1588.900000,2257.790000,0.000000,16.000000,240.418125,1588.900000,0.703741,668.890000,0
1838.410000,2192.190000,0.000000,17.000000,237.094118,1838.410000,0.838618,353.780000,0
2257.880000,2324.140000,0.000000,17.000000,269.530588,2257.880000,0.971491,66.260000,1
1815.300000,2148.420000,0.000000,9.000000,440.413333,1815.300000,0.844947,333.120000,0
1373.730000,2497.370000,371.970000,21.000000,202.050952,1745.700000,0.699015,751.670000,0
2184.830000,2473.240000,350.000000,18.000000,278.226111,2534.830000,1.024903,-61.590000,1
2284.660000,2685.000000,386.410000,19.000000,281.898421,2671.070000,0.994812,13.930000,1
2054.560000,2698.270000,377.260000,14.000000,366.435000,2431.820000,0.901252,266.450000,1
2204.460000,2679.450000,395.540000,12.000000,439.954167,2600.000000,0.970348,79.450000,1
2019.970000,2429.210000,0.000000,13.000000,342.244615,2019.970000,0.831534,409.240000,0
2083.870000,2525.950000,831.430000,17.000000,320.073529,2915.300000,1.154140,-389.350000,1
2083.130000,2700.300000,414.600000,17.000000,305.766471,2497.730000,0.924982,202.570000,1
1965.710000,2460.120000,236.920000,17.000000,274.279412,2202.630000,0.895334,257.490000,0
2498.290000,2820.050000,428.960000,21.000000,273.680952,2927.250000,1.038014,-107.200000,1
2416.320000,2649.170000,422.960000,21.000000,261.354762,2839.280000,1.071762,-190.110000,1
2500.250000,2921.100000,525.900000,21.000000,283.202381,3026.150000,1.035962,-105.050000,1
530.410000,575.130000,27.140000,17.000000,66.628235,557.550000,0.969433,17.580000,1
498.700000,511.230000,31.250000,14.000000,74.370000,529.950000,1.036618,-18.720000,1
508.440000,559.510000,38.050000,10.000000,110.600000,546.490000,0.976730,13.020000,1
453.370000,556.400000,31.450000,11.000000,94.656364,484.820000,0.871352,71.580000,0
624.720000,613.140000,46.620000,20.000000,64.224000,671.340000,1.094921,-58.200000,1
445.350000,506.310000,28.490000,17.000000,57.655882,473.840000,0.935869,32.470000,1
510.590000,622.180000,32.700000,17.000000,68.557059,543.290000,0.873204,78.890000,0
385.680000,472.720000,26.360000,21.000000,42.131429,412.040000,0.871636,60.680000,0
425.340000,508.450000,28.380000,21.000000,45.817619,453.720000,0.892359,54.730000,0
461.380000,550.480000,31.880000,13.000000,80.287692,493.260000,0.896054,57.220000,0
565.040000,526.450000,21.820000,16.000000,69.581875,586.860000,1.114750,-60.410000,1
392.160000,560.710000,27.440000,21.000000,46.681429,419.600000,0.748337,141.110000,0
2052.330000,2344.360000,116.460000,15.000000,300.876667,2168.790000,0.925110,175.570000,1
2214.570000,2512.970000,146.090000,12.000000,406.135833,2360.660000,0.939390,152.310000,1
1448.400000,2077.730000,102.940000,12.000000,302.422500,1551.340000,0.746651,526.390000,0
1629.730000,1949.760000,148.350000,10.000000,372.784000,1778.080000,0.911948,171.680000,1
1651.680000,2007.800000,105.920000,13.000000,289.646154,1757.600000,0.875386,250.200000,0
2096.880000,2294.950000,168.340000,13.000000,350.782308,2265.220000,0.987045,29.730000,1
2226.980000,2343.710000,135.210000,16.000000,294.118750,2362.190000,1.007885,-18.480000,1
2346.870000,2685.970000,150.020000,13.000000,398.681538,2496.890000,0.929605,189.080000,1
1841.300000,2330.570000,137.450000,13.000000,331.486154,1978.750000,0.849041,351.820000,0
1775.220000,2108.720000,150.650000,11.000000,366.780909,1925.870000,0.913289,182.850000,1
1625.540000,2268.130000,94.160000,12.000000,332.319167,1719.700000,0.758202,548.430000,0
1703.660000,2049.700000,159.380000,12.000000,326.061667,1863.040000,0.908933,186.660000,1
855.320000,1128.790000,166.710000,20.000000,107.541000,1022.030000,0.905421,106.760000,1
838.190000,1070.410000,129.610000,11.000000,185.291818,967.800000,0.904140,102.610000,1
1009.050000,1090.270000,85.910000,15.000000,145.682000,1094.960000,1.004302,-4.690000,1
984.270000,1229.050000,163.470000,16.000000,148.549375,1147.740000,0.933843,81.310000,1
1195.100000,1239.610000,208.890000,11.000000,240.327273,1403.990000,1.132606,-164.380000,1
1039.950000,1170.080000,106.690000,15.000000,154.448000,1146.640000,0.979967,23.440000,1
901.710000,1041.420000,102.270000,13.000000,157.338462,1003.980000,0.964049,37.440000,1
866.270000,1030.120000,146.970000,16.000000,127.710000,1013.240000,0.983614,16.880000,1
864.910000,1187.980000,181.520000,16.000000,139.650625,1046.430000,0.880848,141.550000,0
1047.080000,1309.790000,177.540000,19.000000,133.390000,1224.620000,0.934974,85.170000,1
817.860000,1062.850000,178.420000,13.000000,158.394615,996.280000,0.937367,66.570000,1
1189.480000,1242.560000,142.620000,11.000000,234.060000,1332.100000,1.072061,-89.540000,1
696.450000,1152.870000,143.490000,16.000000,124.550625,839.940000,0.728564,312.930000,0
640.370000,1094.410000,0.000000,14.000000,123.912857,640.370000,0.585128,454.040000,0
784.930000,1400.310000,284.030000,13.000000,189.943846,1068.960000,0.763374,331.350000,0
728.090000,1233.090000,100.870000,21.000000,98.192857,828.960000,0.672262,404.130000,0
653.380000,1052.220000,144.450000,14.000000,132.146429,797.830000,0.758235,254.390000,0
705.880000,1115.220000,137.450000,19.000000,103.081579,843.330000,0.756201,271.890000,0
666.340000,1087.850000,127.890000,18.000000,104.560000,794.230000,0.730091,293.620000,0
750.030000,1214.120000,99.070000,11.000000,187.565455,849.100000,0.699354,365.020000,0
678.070000,1231.270000,156.080000,15.000000,137.694667,834.150000,0.677471,397.120000,0
916.900000,1413.030000,154.560000,10.000000,248.449000,1071.460000,0.758271,341.570000,0
808.040000,1247.660000,113.010000,14.000000,154.907857,921.050000,0.738222,326.610000,0
623.590000,1019.280000,112.210000,18.000000,97.504444,735.800000,0.721882,283.480000,0
1695.680000,1995.820000,142.760000,20.000000,191.713000,1838.440000,0.921145,157.380000,1
1279.080000,1751.780000,134.240000,17.000000,186.182353,1413.320000,0.806791,338.460000,0
1500.860000,1733.160000,113.400000,14.000000,239.101429,1614.260000,0.931397,118.900000,1
1263.470000,1841.810000,108.940000,11.000000,292.201818,1372.410000,0.745142,469.400000,0
1441.660000,1869.090000,113.020000,17.000000,201.398235,1554.680000,0.831784,314.410000,0
1415.950000,1719.930000,147.050000,14.000000,234.495000,1563.000000,0.908758,156.930000,1
1568.430000,1943.170000,116.150000,14.000000,259.125000,1684.580000,0.866924,258.590000,0
1702.150000,2173.010000,118.700000,20.000000,199.693000,1820.850000,0.837939,352.160000,0
1633.450000,1937.530000,122.470000,21.000000,175.878571,1755.920000,0.906267,181.610000,1
1459.340000,1786.620000,128.350000,11.000000,306.755455,1587.690000,0.888656,198.930000,0
1609.220000,1887.810000,135.740000,21.000000,172.989048,1744.960000,0.924330,142.850000,1
1417.340000,1645.130000,53.710000,21.000000,148.389524,1471.050000,0.894185,174.080000,0
1223.360000,1294.160000,34.450000,20.000000,127.598500,1257.810000,0.971912,36.350000,1
1241.960000,1326.790000,40.840000,18.000000,144.977222,1282.800000,0.966845,43.990000,1
819.880000,1081.480000,43.270000,13.000000,149.586923,863.150000,0.798119,218.330000,0
1051.290000,1139.000000,19.500000,14.000000,157.842143,1070.790000,0.940114,68.210000,1
1245.880000,1418.540000,41.450000,20.000000,135.293500,1287.330000,0.907503,131.210000,1
1067.640000,1042.690000,29.590000,19.000000,112.627368,1097.230000,1.052307,-54.540000,1
1066.010000,1234.710000,31.950000,10.000000,233.267000,1097.960000,0.889245,136.750000,0
1007.290000,1250.680000,38.660000,16.000000,143.539375,1045.950000,0.836305,204.730000,0
983.360000,1171.290000,26.580000,10.000000,218.123000,1009.940000,0.862246,161.350000,0
1290.210000,1342.930000,45.470000,17.000000,157.565294,1335.680000,0.994601,7.250000,1
1438.900000,1336.380000,30.840000,15.000000,187.074667,1469.740000,1.099792,-133.360000,1
1055.580000,1072.350000,28.730000,10.000000,215.666000,1084.310000,1.011153,-11.960000,1
422.900000,664.810000,78.650000,18.000000,64.797778,501.550000,0.754426,163.260000,0
515.750000,632.740000,66.270000,18.000000,67.486667,582.020000,0.919841,50.720000,1
402.480000,594.680000,52.660000,17.000000,61.754118,455.140000,0.765353,139.540000,0
572.690000,708.460000,0.000000,20.000000,64.057500,572.690000,0.808359,135.770000,0
499.770000,673.400000,115.110000,12.000000,107.356667,614.880000,0.913098,58.520000,1
451.410000,679.100000,67.690000,17.000000,70.482353,519.100000,0.764394,160.000000,0
563.880000,716.980000,76.190000,10.000000,135.705000,640.070000,0.892731,76.910000,0
589.110000,730.020000,50.110000,20.000000,68.462000,639.220000,0.875620,90.800000,0
420.440000,646.240000,54.790000,20.000000,56.073500,475.230000,0.735377,171.010000,0
494.950000,672.980000,48.690000,21.000000,57.934286,543.640000,0.807810,129.340000,0
520.730000,730.430000,66.510000,19.000000,69.351053,587.240000,0.803965,143.190000,0
538.000000,741.360000,67.690000,14.000000,96.217857,605.690000,0.816998,135.670000,0
561.720000,610.330000,45.610000,15.000000,81.177333,607.330000,0.995085,3.000000,1
445.520000,550.740000,51.440000,10.000000,104.770000,496.960000,0.902350,53.780000,1
480.710000,588.210000,24.970000,15.000000,72.926000,505.680000,0.859693,82.530000,0
391.360000,482.350000,24.560000,16.000000,56.141875,415.920000,0.862278,66.430000,0
482.630000,569.290000,40.570000,15.000000,72.832667,523.200000,0.919040,46.090000,1
456.430000,486.000000,26.960000,20.000000,48.469500,483.390000,0.994630,2.610000,1
486.190000,569.090000,41.410000,10.000000,109.669000,527.600000,0.927094,41.490000,1
380.570000,625.120000,58.380000,15.000000,70.938000,438.950000,0.702185,186.170000,0
406.550000,509.890000,39.320000,16.000000,59.735000,445.870000,0.874444,64.020000,0
377.730000,507.490000,23.900000,19.000000,47.848421,401.630000,0.791405,105.860000,0
359.720000,514.480000,39.520000,18.000000,50.762222,399.240000,0.776007,115.240000,0
426.010000,486.230000,27.170000,15.000000,62.627333,453.180000,0.932028,33.050000,1
1926.650000,2299.900000,54.590000,15.000000,285.409333,1981.240000,0.861446,318.660000,0
2253.530000,2190.450000,60.580000,15.000000,300.304000,2314.110000,1.056454,-123.660000,1
2112.400000,2438.690000,77.150000,14.000000,330.588571,2189.550000,0.897839,249.140000,0
2124.260000,2234.950000,0.000000,10.000000,435.921000,2124.260000,0.950473,110.690000,1
1890.850000,2009.400000,116.370000,18.000000,223.145556,2007.220000,0.998915,2.180000,1
2066.030000,2413.660000,73.560000,15.000000,303.550000,2139.590000,0.886450,274.070000,0
2368.660000,2353.570000,72.910000,19.000000,252.375789,2441.570000,1.037390,-88.000000,1
2136.900000,2396.730000,91.000000,11.000000,420.420909,2227.900000,0.929558,168.830000,1
2405.480000,2371.310000,89.720000,13.000000,374.346923,2495.200000,1.052245,-123.890000,1
2463.540000,2709.880000,74.280000,13.000000,403.669231,2537.820000,0.936506,172.060000,1
2135.670000,2389.490000,37.980000,10.000000,456.314000,2173.650000,0.909671,215.840000,1
2726.130000,2826.530000,97.020000,20.000000,282.484000,2823.150000,0.998804,3.380000,1
2248.590000,2204.160000,0.000000,18.000000,247.375000,2248.590000,1.020157,-44.430000,1
2280.890000,2607.790000,0.000000,10.000000,488.868000,2280.890000,0.874645,326.900000,0
1588.350000,2333.110000,0.000000,9.000000,435.717778,1588.350000,0.680787,744.760000,0
2823.310000,2632.520000,0.000000,19.000000,287.148947,2823.310000,1.072474,-190.790000,1
2733.980000,2578.890000,0.000000,14.000000,379.490714,2733.980000,1.060138,-155.090000,1
2494.990000,2669.180000,0.000000,15.000000,344.278000,2494.990000,0.934740,174.190000,1
2008.340000,2234.170000,0.000000,19.000000,223.290000,2008.340000,0.898920,225.830000,0
2167.380000,2531.310000,0.000000,15.000000,313.246000,2167.380000,0.856229,363.930000,0
1946.900000,2487.710000,0.000000,12.000000,369.550833,1946.900000,0.782607,540.810000,0
2631.460000,2802.950000,0.000000,20.000000,271.720500,2631.460000,0.938818,171.490000,1
2619.160000,2902.770000,0.000000,14.000000,394.423571,2619.160000,0.902297,283.610000,1
1871.680000,2303.400000,0.000000,15.000000,278.338667,1871.680000,0.812573,431.720000,0
1640.640000,2167.800000,113.110000,17.000000,230.679412,1753.750000,0.809000,414.050000,0
1510.380000,2222.570000,134.010000,12.000000,322.246667,1644.390000,0.739860,578.180000,0
1535.510000,2078.890000,167.870000,21.000000,180.108095,1703.380000,0.819370,375.510000,0
1519.680000,1943.030000,207.700000,16.000000,229.400625,1727.380000,0.889014,215.650000,0
1156.880000,1839.530000,155.580000,10.000000,315.199000,1312.460000,0.713476,527.070000,0
1606.140000,2083.660000,210.020000,12.000000,324.985000,1816.160000,0.871620,267.500000,0
1611.450000,2205.050000,164.960000,10.000000,398.146000,1776.410000,0.805610,428.640000,0
1592.020000,2028.950000,113.960000,12.000000,311.244167,1705.980000,0.840819,322.970000,0
1298.630000,1903.870000,146.790000,18.000000,186.071667,1445.420000,0.759201,458.450000,0
1382.530000,2005.070000,94.210000,11.000000,316.528182,1476.740000,0.736503,528.330000,0
1095.710000,1719.190000,102.600000,11.000000,265.227273,1198.310000,0.697020,520.880000,0
1361.670000,2272.300000,130.600000,15.000000,250.971333,1492.270000,0.656722,780.030000,0
1060.640000,1687.060000,91.050000,15.000000,189.250000,1151.690000,0.682661,535.370000,0
1293.300000,1691.890000,72.580000,12.000000,254.814167,1365.880000,0.807310,326.010000,0
1279.680000,1462.160000,96.170000,10.000000,283.801000,1375.850000,0.940971,86.310000,1
1370.680000,1682.890000,80.740000,16.000000,195.894375,1451.420000,0.862457,231.470000,0
1308.910000,1605.430000,0.000000,11.000000,264.940000,1308.910000,0.815302,296.520000,0
1125.710000,1625.830000,158.760000,18.000000,161.683333,1284.470000,0.790040,341.360000,0
1379.100000,1578.680000,65.450000,12.000000,251.935833,1444.550000,0.915037,134.130000,1
1234.360000,1695.360000,71.690000,11.000000,272.855455,1306.050000,0.770367,389.310000,0
1218.470000,1568.130000,67.330000,12.000000,237.827500,1285.800000,0.819958,282.330000,0
1244.690000,1736.740000,51.490000,12.000000,252.743333,1296.180000,0.746329,440.560000,0
1112.050000,1469.290000,77.370000,13.000000,204.516154,1189.420000,0.809520,279.870000,0
1237.500000,1744.070000,71.810000,13.000000,234.875385,1309.310000,0.750721,434.760000,0
1454.230000,1972.350000,136.080000,18.000000,197.925556,1590.310000,0.806302,382.040000,0
1137.920000,1887.300000,159.720000,10.000000,318.494000,1297.640000,0.687564,589.660000,0
1125.100000,1706.240000,114.800000,18.000000,163.674444,1239.900000,0.726686,466.340000,0
1453.940000,1941.480000,158.100000,12.000000,296.126667,1612.040000,0.830315,329.440000,0
1149.600000,1748.100000,111.740000,18.000000,167.191111,1261.340000,0.721549,486.760000,0
1421.400000,1713.760000,120.790000,17.000000,191.526471,1542.190000,0.899887,171.570000,0
1710.110000,2307.490000,138.010000,20.000000,207.780500,1848.120000,0.800922,459.370000,0
1607.260000,2010.040000,172.340000,21.000000,180.459048,1779.600000,0.885356,230.440000,0
1514.920000,1905.370000,118.970000,12.000000,294.938333,1633.890000,0.857518,271.480000,0
1271.240000,1766.420000,101.440000,16.000000,196.193750,1372.680000,0.777097,393.740000,0
1507.990000,1923.560000,127.360000,21.000000,169.471905,1635.350000,0.850168,288.210000,0
1274.500000,1811.640000,151.130000,16.000000,202.329375,1425.630000,0.786928,386.010000,0
835.610000,1042.900000,0.000000,20.000000,93.925500,835.610000,0.801237,207.290000,0
1245.800000,1307.670000,212.620000,18.000000,153.671667,1458.420000,1.115281,-150.750000,1
1172.440000,1368.290000,178.100000,14.000000,194.202143,1350.540000,0.987028,17.750000,1
839.350000,1156.380000,118.370000,14.000000,151.007143,957.720000,0.828205,198.660000,0
1077.990000,1250.970000,119.120000,21.000000,116.575238,1197.110000,0.956945,53.860000,1
866.020000,1402.950000,129.920000,10.000000,239.889000,995.940000,0.709890,407.010000,0
1047.470000,1277.440000,161.920000,13.000000,191.294615,1209.390000,0.946729,68.050000,1
1053.800000,1255.270000,124.340000,19.000000,128.074211,1178.140000,0.938555,77.130000,1
862.960000,1251.180000,134.790000,14.000000,160.637857,997.750000,0.797447,253.430000,0
963.690000,1272.540000,117.880000,14.000000,168.150714,1081.570000,0.849930,190.970000,0
1072.190000,1361.580000,174.880000,12.000000,217.387500,1247.070000,0.915899,114.510000,1
1226.820000,1492.370000,130.640000,14.000000,203.559286,1357.460000,0.909600,134.910000,1
884.150000,1820.830000,0.000000,9.000000,300.553333,884.150000,0.485575,936.680000,0
1301.300000,1910.950000,366.100000,17.000000,210.491176,1667.400000,0.872550,243.550000,0
1025.130000,1635.810000,215.970000,15.000000,191.794000,1241.100000,0.758707,394.710000,0
1213.080000,1909.220000,337.040000,18.000000,192.185556,1550.120000,0.811913,359.100000,0
1063.280000,1530.570000,269.140000,13.000000,220.230000,1332.420000,0.870538,198.150000,0
1362.810000,1737.680000,139.570000,11.000000,294.550909,1502.380000,0.864590,235.300000,0
1256.170000,1779.400000,293.060000,20.000000,166.431500,1549.230000,0.870647,230.170000,0
1188.280000,1927.570000,330.750000,18.000000,191.477778,1519.030000,0.788054,408.540000,0
1098.840000,1722.300000,258.760000,19.000000,162.100000,1357.600000,0.788248,364.700000,0
1097.050000,1772.680000,209.410000,17.000000,181.125882,1306.460000,0.736997,466.220000,0
881.310000,1742.400000,240.080000,17.000000,168.458235,1121.390000,0.643589,621.010000,0
1256.230000,1720.750000,189.670000,13.000000,243.588462,1445.900000,0.840273,274.850000,0
1016.650000,1360.430000,118.560000,12.000000,207.970000,1135.210000,0.834449,225.220000,0
1021.750000,1330.540000,0.000000,11.000000,213.844545,1021.750000,0.767921,308.790000,0
1243.350000,1488.650000,327.480000,19.000000,161.025263,1570.830000,1.055204,-82.180000,1
1649.270000,1900.620000,147.750000,17.000000,217.508235,1797.020000,0.945491,103.600000,1
1304.790000,1419.950000,118.070000,20.000000,142.140500,1422.860000,1.002049,-2.910000,1
1331.360000,1481.050000,157.420000,12.000000,247.485833,1488.780000,1.005219,-7.730000,1
1040.810000,1412.270000,216.530000,13.000000,205.354615,1257.340000,0.890297,154.930000,0
1043.080000,1312.420000,142.230000,18.000000,138.762778,1185.310000,0.903148,127.110000,1
1387.490000,1645.620000,241.790000,12.000000,272.908333,1629.280000,0.990071,16.340000,1
1733.880000,1758.570000,201.780000,13.000000,284.171538,1935.660000,1.100701,-177.090000,1
1281.770000,1586.350000,178.260000,11.000000,276.943636,1460.030000,0.920371,126.320000,1
1737.650000,1653.950000,260.050000,12.000000,304.304167,1997.700000,1.207836,-343.750000,1
1025.620000,1396.950000,108.160000,12.000000,210.894167,1133.780000,0.811611,263.170000,0
1073.380000,1775.110000,176.070000,16.000000,189.035000,1249.450000,0.703872,525.660000,0
990.240000,1346.600000,69.110000,10.000000,240.595000,1059.350000,0.786685,287.250000,0
881.280000,1383.820000,120.690000,17.000000,140.340588,1001.970000,0.724061,381.850000,0
1148.630000,1521.030000,116.920000,18.000000,154.810000,1265.550000,0.832035,255.480000,0
1224.130000,1522.640000,134.930000,15.000000,192.113333,1359.060000,0.892568,163.580000,0
1090.160000,1487.390000,164.680000,15.000000,182.815333,1254.840000,0.843652,232.550000,0
1288.650000,1676.830000,67.870000,12.000000,252.779167,1356.520000,0.808979,320.310000,0
1633.210000,1701.750000,111.040000,10.000000,344.600000,1744.250000,1.024974,-42.500000,1
1136.730000,1367.550000,0.000000,12.000000,208.690000,1136.730000,0.831216,230.820000,0
1207.160000,1809.020000,228.930000,13.000000,249.623846,1436.090000,0.793850,372.930000,0
917.290000,1613.690000,109.720000,20.000000,132.035000,1027.010000,0.636436,586.680000,0
611.390000,787.880000,50.350000,21.000000,69.029524,661.740000,0.839899,126.140000,0
592.810000,917.550000,45.140000,10.000000,155.550000,637.950000,0.695275,279.600000,0
679.770000,845.620000,41.300000,14.000000,111.906429,721.070000,0.852712,124.550000,0
696.010000,848.670000,54.390000,10.000000,159.907000,750.400000,0.884207,98.270000,0
644.110000,838.370000,60.040000,16.000000,96.407500,704.150000,0.839904,134.220000,0
606.050000,763.860000,43.550000,16.000000,88.341250,649.600000,0.850418,114.260000,0
617.460000,914.880000,53.550000,17.000000,93.287647,671.010000,0.733440,243.870000,0
546.920000,763.750000,33.950000,18.000000,74.701111,580.870000,0.760550,182.880000,0
627.140000,780.750000,60.950000,19.000000,77.307368,688.090000,0.881319,92.660000,0
736.760000,878.070000,64.790000,13.000000,129.201538,801.550000,0.912854,76.520000,1
656.670000,834.550000,52.160000,11.000000,140.307273,708.830000,0.849356,125.720000,0
710.420000,949.310000,66.020000,13.000000,132.750000,776.440000,0.817899,172.870000,0
718.060000,924.440000,83.640000,11.000000,156.921818,801.700000,0.867228,122.740000,0
787.850000,938.420000,122.260000,14.000000,132.037857,910.110000,0.969832,28.310000,1
773.570000,994.070000,118.370000,15.000000,125.734000,891.940000,0.897261,102.130000,0
729.410000,919.740000,88.960000,19.000000,91.479474,818.370000,0.889784,101.370000,0
627.230000,907.160000,100.830000,17.000000,96.189412,728.060000,0.802571,179.100000,0
784.680000,918.110000,113.830000,12.000000,151.385000,898.510000,0.978652,19.600000,1
605.130000,941.850000,0.000000,9.000000,171.886667,605.130000,0.642491,336.720000,0
747.630000,845.620000,121.000000,14.000000,122.446429,868.630000,1.027211,-23.010000,1
711.710000,925.660000,102.210000,18.000000,96.643333,813.920000,0.879286,111.740000,0
626.600000,788.640000,72.720000,13.000000,114.458462,699.320000,0.886742,89.320000,0
823.790000,844.620000,92.380000,14.000000,125.770714,916.170000,1.084713,-71.550000,1
769.800000,894.860000,65.330000,15.000000,115.332667,835.130000,0.933252,59.730000,1
509.040000,563.800000,49.560000,21.000000,53.447619,558.600000,0.990777,5.200000,1
409.030000,502.690000,40.270000,16.000000,59.499375,449.300000,0.893791,53.390000,0
452.730000,630.930000,66.660000,21.000000,54.777143,519.390000,0.823213,111.540000,0
356.370000,488.150000,35.920000,10.000000,88.044000,392.290000,0.803626,95.860000,0
425.950000,598.050000,43.010000,16.000000,66.688125,468.960000,0.784148,129.090000,0
307.710000,487.160000,45.520000,10.000000,84.039000,353.230000,0.725080,133.930000,0
330.570000,483.370000,0.000000,9.000000,90.437778,330.570000,0.683886,152.800000,0
465.070000,573.390000,89.630000,15.000000,75.206000,554.700000,0.967404,18.690000,1
354.940000,500.830000,48.950000,15.000000,60.314667,403.890000,0.806441,96.940000,0
367.880000,495.280000,41.920000,12.000000,75.423333,409.800000,0.827411,85.480000,0
379.090000,540.700000,41.340000,17.000000,56.537059,420.430000,0.777566,120.270000,0
398.820000,531.070000,44.300000,21.000000,46.390000,443.120000,0.834391,87.950000,0
1978.370000,1857.580000,149.910000,13.000000,306.604615,2128.280000,1.145727,-270.700000,1
2418.890000,2296.030000,226.100000,16.000000,308.813750,2644.990000,1.151984,-348.960000,1
1808.490000,2052.600000,158.540000,20.000000,200.981500,1967.030000,0.958311,85.570000,1
1877.300000,2322.320000,266.040000,16.000000,279.103750,2143.340000,0.922931,178.980000,1
1752.020000,2047.610000,205.760000,14.000000,286.099286,1957.780000,0.956129,89.830000,1
1628.040000,1969.690000,170.330000,17.000000,221.650588,1798.370000,0.913022,171.320000,1
1704.580000,2141.860000,259.430000,10.000000,410.587000,1964.010000,0.916965,177.850000,1
1778.800000,2118.040000,186.780000,21.000000,194.458095,1965.580000,0.928018,152.460000,1
1560.750000,1929.780000,137.420000,14.000000,259.139286,1698.170000,0.879981,231.610000,0
1751.030000,2032.270000,188.660000,20.000000,198.598000,1939.690000,0.954445,92.580000,1
2247.310000,2191.010000,198.030000,10.000000,463.635000,2445.340000,1.116079,-254.330000,1
1708.980000,1989.050000,206.390000,20.000000,195.221000,1915.370000,0.962957,73.680000,1
1463.530000,1857.540000,118.120000,21.000000,163.770952,1581.650000,0.851476,275.890000,0
1447.840000,1764.120000,91.190000,18.000000,183.508333,1539.030000,0.872407,225.090000,0
1341.090000,1687.280000,95.150000,12.000000,260.293333,1436.240000,0.851216,251.040000,0
1218.940000,1448.980000,81.870000,15.000000,183.319333,1300.810000,0.897742,148.170000,0
1490.970000,1648.320000,77.290000,16.000000,201.036250,1568.260000,0.951429,80.060000,1
1196.670000,1625.320000,61.810000,15.000000,192.253333,1258.480000,0.774297,366.840000,0
1304.990000,1514.110000,101.260000,14.000000,208.597143,1406.250000,0.928763,107.860000,1
1316.750000,1630.680000,86.370000,16.000000,189.612500,1403.120000,0.860451,227.560000,0
1227.120000,1816.290000,105.620000,11.000000,286.275455,1332.740000,0.733770,483.550000,0
1371.700000,1623.180000,130.810000,18.000000,173.649444,1502.510000,0.925658,120.670000,1
1269.830000,1564.700000,83.080000,19.000000,153.558421,1352.910000,0.864645,211.790000,0
1259.810000,1607.860000,105.950000,17.000000,174.918824,1365.760000,0.849427,242.100000,0
1069.640000,1619.400000,173.440000,10.000000,286.248000,1243.080000,0.767618,376.320000,0
1050.840000,1534.310000,166.560000,10.000000,275.171000,1217.400000,0.793451,316.910000,0
1160.690000,1751.710000,240.450000,17.000000,185.461765,1401.140000,0.799870,350.570000,0
1223.460000,1535.350000,0.000000,18.000000,153.267222,1223.460000,0.796861,311.890000,0
1125.920000,1599.680000,353.330000,11.000000,279.902727,1479.250000,0.924716,120.430000,1
1244.390000,1765.360000,219.770000,13.000000,248.424615,1464.160000,0.829383,301.200000,0
1141.730000,1662.600000,184.920000,21.000000,142.345238,1326.650000,0.797937,335.950000,0
1146.280000,1616.320000,272.190000,19.000000,159.725789,1418.470000,0.877592,197.850000,0
1401.890000,1657.120000,225.210000,19.000000,172.853684,1627.100000,0.981884,30.020000,1
1098.990000,1663.710000,200.450000,12.000000,246.929167,1299.440000,0.781050,364.270000,0
1325.870000,1744.740000,199.240000,17.000000,192.344118,1525.110000,0.874119,219.630000,0
1118.740000,1683.010000,189.590000,19.000000,157.438947,1308.330000,0.777375,374.680000,0
775.840000,972.290000,0.000000,15.000000,116.542000,775.840000,0.797951,196.450000,0
884.530000,915.290000,0.000000,17.000000,105.871765,884.530000,0.966393,30.760000,1
1009.360000,925.110000,0.000000,14.000000,138.176429,1009.360000,1.091070,-84.250000,1
1008.380000,1076.650000,0.000000,16.000000,130.314375,1008.380000,0.936590,68.270000,1
1027.340000,1143.250000,0.000000,19.000000,114.241579,1027.340000,0.898614,115.910000,0
1003.860000,1106.710000,0.000000,10.000000,211.057000,1003.860000,0.907067,102.850000,1
943.150000,850.010000,0.000000,17.000000,105.480000,943.150000,1.109575,-93.140000,1
931.780000,1111.230000,0.000000,15.000000,136.200667,931.780000,0.838512,179.450000,0
971.480000,964.670000,0.000000,15.000000,129.076667,971.480000,1.007059,-6.810000,1
820.360000,1052.790000,0.000000,12.000000,156.095833,820.360000,0.779225,232.430000,0
1054.250000,978.070000,0.000000,11.000000,184.756364,1054.250000,1.077888,-76.180000,1
978.290000,1100.280000,0.000000,13.000000,159.890000,978.290000,0.889128,121.990000,0
569.930000,734.440000,58.300000,16.000000,85.166875,628.230000,0.855386,106.210000,0
775.810000,993.450000,78.690000,21.000000,87.997619,854.500000,0.860134,138.950000,0
984.850000,905.930000,62.950000,14.000000,139.552143,1047.800000,1.156602,-141.870000,1
607.070000,783.200000,53.550000,13.000000,111.063077,660.620000,0.843488,122.580000,0
602.420000,921.030000,57.140000,14.000000,112.899286,659.560000,0.716111,261.470000,0
752.990000,955.760000,62.640000,20.000000,88.569500,815.630000,0.853384,140.130000,0
730.370000,911.770000,53.880000,15.000000,113.068000,784.250000,0.860140,127.520000,0
756.790000,858.880000,44.660000,15.000000,110.688667,801.450000,0.933134,57.430000,1
643.350000,779.500000,55.580000,17.000000,86.966471,698.930000,0.896639,80.570000,0
751.720000,956.230000,54.200000,10.000000,176.215000,805.920000,0.842810,150.310000,0
848.110000,958.920000,46.910000,21.000000,88.282857,895.020000,0.933363,63.900000,1
838.460000,855.230000,62.050000,10.000000,175.574000,900.510000,1.052945,-45.280000,1
1041.160000,1188.930000,205.680000,13.000000,187.366923,1246.840000,1.048708,-57.910000,1
793.120000,1235.100000,111.700000,18.000000,118.884444,904.820000,0.732588,330.280000,0
954.620000,1237.190000,0.000000,19.000000,115.358421,954.620000,0.771603,282.570000,0
886.600000,1313.470000,465.340000,22.000000,121.155000,1351.940000,1.029289,-38.470000,1
760.820000,1044.530000,148.770000,21.000000,93.053333,909.590000,0.870813,134.940000,0
755.220000,1292.300000,186.660000,10.000000,223.418000,941.880000,0.728840,350.420000,0
789.290000,1218.310000,207.370000,19.000000,116.577368,996.660000,0.818068,221.650000,0
692.380000,1047.310000,205.140000,18.000000,108.046111,897.520000,0.856976,149.790000,0
726.940000,1153.510000,206.800000,19.000000,109.855263,933.740000,0.809477,219.770000,0
821.190000,1151.400000,235.700000,13.000000,169.868462,1056.890000,0.917917,94.510000,1
794.720000,1067.710000,158.090000,17.000000,118.854118,952.810000,0.892387,114.900000,0
836.120000,1078.230000,213.120000,13.000000,163.651538,1049.240000,0.973113,28.990000,1
1129.010000,1412.090000,0.000000,10.000000,254.110000,1129.010000,0.799531,283.080000,0
973.890000,1410.530000,536.710000,13.000000,224.702308,1510.600000,1.070945,-100.070000,1
766.510000,1252.700000,284.050000,10.000000,230.326000,1050.560000,0.838637,202.140000,0
1125.550000,1485.760000,0.000000,13.000000,200.870000,1125.550000,0.757558,360.210000,0
879.500000,1183.430000,406.800000,19.000000,129.985789,1286.300000,1.086925,-102.870000,1
1064.480000,1622.620000,271.820000,19.000000,155.732632,1336.300000,0.823545,286.320000,0
1032.550000,1360.300000,193.410000,21.000000,123.155238,1225.960000,0.901242,134.340000,1
888.030000,1221.100000,183.420000,12.000000,191.045833,1071.450000,0.877447,149.650000,0
1297.880000,1649.610000,311.890000,12.000000,271.615000,1609.770000,0.975849,39.840000,1
970.800000,1306.270000,165.040000,12.000000,203.509167,1135.840000,0.869529,170.430000,0
1124.820000,1465.080000,225.110000,17.000000,165.588824,1349.930000,0.921404,115.150000,1
1206.450000,1463.910000,214.890000,17.000000,169.720588,1421.340000,0.970920,42.570000,1
1453.990000,1874.790000,314.180000,16.000000,227.685000,1768.170000,0.943130,106.620000,1
1046.360000,1739.600000,124.810000,14.000000,207.912143,1171.170000,0.673241,568.430000,0
1547.690000,1829.870000,184.990000,11.000000,323.868182,1732.680000,0.946887,97.190000,1
1433.580000,1949.450000,276.930000,18.000000,203.331111,1710.510000,0.877432,238.940000,0
1442.860000,1764.140000,228.580000,14.000000,245.398571,1671.440000,0.947453,92.700000,1
1374.230000,2059.650000,182.720000,21.000000,172.219048,1556.950000,0.755929,502.700000,0
1427.090000,1779.480000,255.960000,18.000000,192.362778,1683.050000,0.945810,96.430000,1
1585.170000,2042.570000,289.190000,11.000000,356.084545,1874.360000,0.917648,168.210000,1
1406.960000,1835.720000,269.330000,12.000000,292.667500,1676.290000,0.913151,159.430000,1
1309.150000,1633.040000,266.610000,13.000000,246.830769,1575.760000,0.964924,57.280000,1
1498.200000,2119.470000,331.650000,13.000000,303.793846,1829.850000,0.863353,289.620000,0
1500.540000,1987.620000,329.590000,11.000000,347.068182,1830.130000,0.920765,157.490000,1
1677.840000,1966.440000,0.000000,18.000000,202.460000,1677.840000,0.853237,288.600000,0
1477.750000,1700.710000,255.680000,17.000000,202.008235,1733.430000,1.019239,-32.720000,1
1228.050000,1577.320000,96.980000,20.000000,145.117500,1325.030000,0.840051,252.290000,0
1375.840000,1546.820000,55.190000,20.000000,148.892500,1431.030000,0.925143,115.790000,1
1476.090000,1647.460000,115.040000,16.000000,202.411875,1591.130000,0.965808,56.330000,1
1316.470000,1597.590000,103.430000,21.000000,143.690000,1419.900000,0.888776,177.690000,0
1613.700000,1975.320000,120.810000,11.000000,337.257273,1734.510000,0.878091,240.810000,0
1410.890000,1506.620000,95.750000,14.000000,215.232857,1506.640000,1.000013,-0.020000,1
1249.880000,1704.090000,99.620000,19.000000,160.715263,1349.500000,0.791918,354.590000,0
1311.650000,1779.270000,123.900000,21.000000,153.086667,1435.550000,0.806820,343.720000,0
1542.800000,1912.540000,99.600000,21.000000,169.282857,1642.400000,0.858753,270.140000,0
1663.850000,1873.070000,120.470000,20.000000,182.869500,1784.320000,0.952618,88.750000,1
1462.480000,1511.990000,0.000000,10.000000,297.447000,1462.480000,0.967255,49.510000,1
1011.260000,1472.660000,154.440000,14.000000,188.454286,1165.700000,0.791561,306.960000,0
783.600000,1337.490000,343.840000,12.000000,205.410833,1127.440000,0.842952,210.050000,0
1282.700000,1413.020000,93.880000,21.000000,132.838095,1376.580000,0.974211,36.440000,1
1172.790000,1359.030000,172.740000,20.000000,135.228000,1345.530000,0.990066,13.500000,1
867.570000,1167.930000,139.280000,21.000000,103.560952,1006.850000,0.862081,161.080000,0
1017.580000,1383.710000,195.180000,21.000000,123.641429,1212.760000,0.876455,170.950000,0
1161.000000,1514.370000,151.470000,19.000000,148.781053,1312.470000,0.866677,201.900000,0
1036.210000,1231.910000,150.480000,18.000000,134.366667,1186.690000,0.963293,45.220000,1
904.220000,1307.530000,137.870000,14.000000,167.830000,1042.090000,0.796991,265.440000,0
1028.460000,1444.870000,182.110000,15.000000,177.029333,1210.570000,0.837840,234.300000,0
1047.270000,1364.730000,148.770000,20.000000,128.038500,1196.040000,0.876393,168.690000,0
836.090000,984.090000,0.000000,12.000000,151.681667,836.090000,0.849607,148.000000,0
592.990000,946.590000,99.770000,10.000000,163.935000,692.760000,0.731848,253.830000,0
1012.620000,1160.930000,280.750000,16.000000,153.393750,1293.370000,1.114081,-132.440000,1
795.580000,1107.790000,0.000000,17.000000,111.962941,795.580000,0.718169,312.210000,0
745.770000,1153.560000,279.150000,11.000000,198.043636,1024.920000,0.888484,128.640000,0
856.460000,1026.520000,158.220000,12.000000,170.100000,1014.680000,0.988466,11.840000,1
865.850000,1074.110000,119.020000,13.000000,158.383077,984.870000,0.916917,89.240000,1
649.260000,999.160000,117.610000,17.000000,103.884118,766.870000,0.767515,232.290000,0
987.930000,1181.260000,162.180000,10.000000,233.137000,1150.110000,0.973630,31.150000,1
818.130000,1003.780000,167.050000,18.000000,110.497778,985.180000,0.981470,18.600000,1
665.770000,871.430000,121.100000,14.000000,118.450000,786.870000,0.902964,84.560000,1
825.230000,1161.830000,153.530000,12.000000,178.382500,978.760000,0.842430,183.070000,0
2014.430000,2510.150000,0.000000,15.000000,301.638667,2014.430000,0.802514,495.720000,0
2408.600000,2699.090000,539.360000,18.000000,313.725000,2947.960000,1.092205,-248.870000,1
1765.360000,1845.610000,200.160000,11.000000,346.466364,1965.520000,1.064970,-119.910000,1
2122.010000,2702.300000,380.220000,18.000000,289.140556,2502.230000,0.925963,200.070000,1
1957.990000,2287.410000,0.000000,20.000000,212.270000,1957.990000,0.855986,329.420000,0
1844.530000,2755.180000,430.050000,15.000000,335.317333,2274.580000,0.825565,480.600000,0
2117.710000,2668.440000,298.230000,13.000000,391.106154,2415.940000,0.905375,252.500000,1
2210.310000,2415.140000,275.860000,16.000000,306.331875,2486.170000,1.029410,-71.030000,1
1703.200000,2408.760000,263.970000,10.000000,437.593000,1967.170000,0.816673,441.590000,0
2059.350000,2183.550000,276.220000,16.000000,282.445000,2335.570000,1.069621,-152.020000,1
2060.910000,2517.380000,334.630000,13.000000,377.916923,2395.540000,0.951600,121.840000,1
2067.270000,2422.020000,149.160000,21.000000,220.878571,2216.430000,0.915116,205.590000,1
963.370000,1151.700000,50.500000,17.000000,127.386471,1013.870000,0.880325,137.830000,0
732.930000,972.760000,58.490000,19.000000,92.851579,791.420000,0.813582,181.340000,0
1058.160000,1186.440000,51.760000,12.000000,191.363333,1109.920000,0.935505,76.520000,1
1053.070000,1338.180000,88.130000,12.000000,206.615000,1141.200000,0.852800,196.980000,0
1149.080000,1269.200000,61.950000,10.000000,248.023000,1211.030000,0.954168,58.170000,1
1052.410000,1171.670000,56.060000,17.000000,134.125882,1108.470000,0.946060,63.200000,1
833.680000,1154.880000,52.630000,15.000000,136.079333,886.310000,0.767448,268.570000,0
867.410000,1349.590000,78.570000,10.000000,229.557000,945.980000,0.700939,403.610000,0
960.830000,1384.470000,79.140000,20.000000,121.222000,1039.970000,0.751168,344.500000,0
1009.720000,1239.910000,63.780000,20.000000,115.670500,1073.500000,0.865789,166.410000,0
867.180000,1230.860000,40.170000,15.000000,142.547333,907.350000,0.737168,323.510000,0
868.670000,1037.510000,51.670000,16.000000,122.365625,920.340000,0.887066,117.170000,0
1198.840000,1385.610000,131.040000,20.000000,135.774500,1329.880000,0.959779,55.730000,1
1237.470000,1411.760000,112.370000,15.000000,184.106667,1349.840000,0.956140,61.920000,1
1228.140000,1380.920000,139.010000,12.000000,229.005833,1367.150000,0.990028,13.770000,1
1251.500000,1335.660000,130.180000,12.000000,226.445000,1381.680000,1.034455,-46.020000,1
1210.810000,1540.200000,177.470000,19.000000,154.130526,1388.280000,0.901363,151.920000,1
1016.350000,1414.470000,109.560000,10.000000,254.038000,1125.910000,0.795994,288.560000,0
994.880000,1339.910000,121.030000,11.000000,223.256364,1115.910000,0.832825,224.000000,0
1120.490000,1372.710000,120.230000,15.000000,174.228667,1240.720000,0.903847,131.990000,1
1055.800000,1136.070000,73.680000,12.000000,188.795833,1129.480000,0.994199,6.590000,1
1226.380000,1310.520000,0.000000,9.000000,281.877778,1226.380000,0.935796,84.140000,1
1187.200000,1295.040000,232.010000,19.000000,142.855263,1419.210000,1.095881,-124.170000,1
1308.160000,1307.680000,123.950000,17.000000,161.164118,1432.110000,1.095153,-124.430000,1
1121.010000,1466.340000,240.040000,13.000000,217.491538,1361.050000,0.928195,105.290000,1
1045.110000,1238.190000,120.650000,20.000000,120.197500,1165.760000,0.941503,72.430000,1
1117.510000,1473.790000,0.000000,11.000000,235.572727,1117.510000,0.758256,356.280000,0
1454.130000,1578.440000,358.890000,12.000000,282.621667,1813.020000,1.148615,-234.580000,1
1025.860000,1438.690000,139.710000,10.000000,260.426000,1165.570000,0.810161,273.120000,0
828.790000,1328.220000,190.330000,14.000000,167.667143,1019.120000,0.767283,309.100000,0
1059.250000,1456.100000,90.570000,14.000000,186.137143,1149.820000,0.789657,306.280000,0
1031.790000,1396.300000,157.780000,19.000000,136.098421,1189.570000,0.851944,206.730000,0
929.540000,1457.260000,154.760000,13.000000,195.504615,1084.300000,0.744068,372.960000,0
977.530000,1215.090000,143.230000,15.000000,155.723333,1120.760000,0.922368,94.330000,1
1131.610000,1587.660000,162.500000,18.000000,160.098333,1294.110000,0.815105,293.550000,0
1173.170000,1441.850000,143.300000,16.000000,172.395000,1316.470000,0.913042,125.380000,1
996.020000,1526.490000,31.510000,10.000000,255.402000,1027.530000,0.673132,498.960000,0
1105.650000,1662.540000,29.850000,10.000000,279.804000,1135.500000,0.682991,527.040000,0
1433.810000,1606.340000,22.990000,10.000000,306.314000,1456.800000,0.906906,149.540000,1
1044.100000,1524.470000,32.980000,12.000000,216.795833,1077.080000,0.706528,447.390000,0
1377.020000,1671.670000,28.150000,17.000000,180.990588,1405.170000,0.840579,266.500000,0
1186.590000,1509.250000,18.470000,15.000000,180.954000,1205.060000,0.798450,304.190000,0
1299.430000,1730.370000,35.640000,21.000000,145.973333,1335.070000,0.771552,395.300000,0
1514.580000,1600.760000,24.920000,18.000000,174.458889,1539.500000,0.961731,61.260000,1
1389.560000,1499.460000,26.720000,13.000000,224.287692,1416.280000,0.944527,83.180000,1
1409.450000,1629.260000,30.940000,13.000000,236.126923,1440.390000,0.884076,188.870000,0
1291.530000,1556.960000,20.250000,20.000000,143.437000,1311.780000,0.842526,245.180000,0
1368.900000,1528.160000,22.030000,15.000000,194.606000,1390.930000,0.910199,137.230000,1
1861.280000,2186.880000,201.410000,14.000000,303.540714,2062.690000,0.943211,124.190000,1
1909.470000,2266.340000,189.740000,18.000000,242.530556,2099.210000,0.926256,167.130000,1
1939.190000,2303.630000,0.000000,19.000000,223.306316,1939.190000,0.841798,364.440000,0
1726.040000,1942.190000,345.220000,18.000000,222.969444,2071.260000,1.066456,-129.070000,1
1852.250000,2183.790000,122.170000,12.000000,346.517500,1974.420000,0.904125,209.370000,1
1842.040000,2005.000000,187.820000,18.000000,224.158889,2029.860000,1.012399,-24.860000,1
1685.810000,2002.340000,142.880000,17.000000,225.354706,1828.690000,0.913276,173.650000,1
1635.440000,2066.530000,155.240000,10.000000,385.721000,1790.680000,0.866515,275.850000,0
1602.490000,1974.160000,121.540000,21.000000,176.104286,1724.030000,0.873298,250.130000,0
1758.190000,2235.890000,222.590000,12.000000,351.389167,1980.780000,0.885902,255.110000,0
1907.460000,1984.680000,105.520000,17.000000,235.156471,2012.980000,1.014259,-28.300000,1
1824.610000,2085.930000,138.340000,14.000000,289.205714,1962.950000,0.941043,122.980000,1
1474.880000,2052.630000,69.240000,15.000000,239.783333,1544.120000,0.752264,508.510000,0
1633.900000,2098.450000,114.950000,14.000000,274.807143,1748.850000,0.833401,349.600000,0
1594.810000,2141.190000,68.900000,12.000000,317.075000,1663.710000,0.777003,477.480000,0
1604.770000,2264.650000,49.920000,16.000000,244.958750,1654.690000,0.730660,609.960000,0
1509.810000,2150.190000,98.700000,12.000000,313.225000,1608.510000,0.748078,541.680000,0
1752.290000,2085.410000,83.120000,20.000000,196.041000,1835.410000,0.880119,250.000000,0
1881.260000,2455.410000,135.330000,17.000000,263.058824,2016.590000,0.821284,438.820000,0
1727.170000,2205.570000,103.220000,19.000000,212.418947,1830.390000,0.829894,375.180000,0
1625.580000,2140.950000,56.790000,12.000000,318.610000,1682.370000,0.785805,458.580000,0
1506.780000,2259.490000,102.210000,19.000000,203.604211,1608.990000,0.712103,650.500000,0
1580.290000,1946.980000,111.300000,17.000000,214.033529,1691.590000,0.868828,255.390000,0
1598.640000,2200.720000,106.160000,15.000000,260.368000,1704.800000,0.774656,495.920000,0
1380.400000,1883.220000,180.050000,20.000000,172.183500,1560.450000,0.828607,322.770000,0
1460.620000,1793.600000,0.000000,13.000000,250.324615,1460.620000,0.814351,332.980000,0
1565.000000,1894.520000,247.470000,17.000000,218.058235,1812.470000,0.956691,82.050000,1
1365.460000,1867.200000,193.140000,10.000000,342.580000,1558.600000,0.834726,308.600000,0
1610.450000,1988.860000,244.690000,16.000000,240.250000,1855.140000,0.932766,133.720000,1
1519.200000,1904.450000,0.000000,17.000000,201.391176,1519.200000,0.797711,385.250000,0
1228.010000,1768.040000,431.410000,17.000000,201.615294,1659.420000,0.938565,108.620000,1
1647.430000,1883.210000,183.640000,20.000000,185.714000,1831.070000,0.972313,52.140000,1
1421.270000,1803.320000,149.450000,18.000000,187.446667,1570.720000,0.871016,232.600000,0
1507.140000,1955.300000,116.750000,20.000000,178.959500,1623.890000,0.830507,331.410000,0
1296.650000,1719.900000,182.150000,11.000000,290.790909,1478.800000,0.859817,241.100000,0
1517.530000,1894.630000,233.330000,17.000000,214.440588,1750.860000,0.924117,143.770000,1
1154.560000,1826.190000,0.000000,12.000000,248.395833,1154.560000,0.632223,671.630000,0
1186.710000,1594.990000,106.410000,13.000000,222.162308,1293.120000,0.810739,301.870000,0
1186.550000,1626.370000,153.920000,17.000000,174.520000,1340.470000,0.824210,285.900000,0
1021.200000,1440.690000,48.290000,17.000000,147.657647,1069.490000,0.742346,371.200000,0
1285.570000,1457.350000,79.330000,10.000000,282.225000,1364.900000,0.936563,92.450000,1
1218.840000,1745.020000,86.200000,11.000000,277.278182,1305.040000,0.747865,439.980000,0
1006.280000,1384.040000,34.740000,20.000000,121.253000,1041.020000,0.752160,343.020000,0
1157.230000,1364.080000,76.040000,19.000000,136.702632,1233.270000,0.904104,130.810000,1
1139.260000,1479.530000,60.710000,14.000000,191.392857,1199.970000,0.811048,279.560000,0
1435.830000,1618.310000,89.870000,11.000000,285.819091,1525.700000,0.942774,92.610000,1
1041.700000,1505.820000,59.490000,12.000000,217.250833,1101.190000,0.731289,404.630000,0
970.630000,1347.280000,56.600000,21.000000,113.071905,1027.230000,0.762447,320.050000,0
1879.650000,2171.100000,128.510000,16.000000,261.203750,2008.160000,0.924950,162.940000,1
2116.740000,2469.740000,115.250000,17.000000,276.572353,2231.990000,0.903735,237.750000,1
1502.870000,2038.010000,115.350000,11.000000,332.384545,1618.220000,0.794020,419.790000,0
1854.240000,2298.360000,134.380000,19.000000,225.630526,1988.620000,0.865234,309.740000,0
1408.330000,1943.360000,89.910000,11.000000,312.872727,1498.240000,0.770953,445.120000,0
2001.650000,2482.560000,159.720000,21.000000,221.139524,2161.370000,0.870621,321.190000,0
2114.970000,2622.450000,190.770000,13.000000,379.091538,2305.740000,0.879231,316.710000,0
1405.620000,2354.930000,168.590000,10.000000,392.914000,1574.210000,0.668474,780.720000,0
2320.250000,2266.430000,179.470000,11.000000,433.286364,2499.720000,1.102933,-233.290000,1
1650.920000,1836.580000,104.520000,14.000000,256.572857,1755.440000,0.955820,81.140000,1
1421.630000,2022.680000,152.250000,12.000000,299.713333,1573.880000,0.778116,448.800000,0
1625.860000,2404.640000,109.660000,15.000000,276.010667,1735.520000,0.721738,669.120000,0
2125.170000,2683.150000,137.090000,16.000000,309.088125,2262.260000,0.843136,420.890000,0
2000.340000,2407.140000,0.000000,14.000000,314.820000,2000.340000,0.831003,406.800000,0
2124.630000,2168.260000,187.170000,17.000000,263.532941,2311.800000,1.066201,-143.540000,1
2636.900000,2735.010000,107.670000,10.000000,547.958000,2744.570000,1.003495,-9.560000,1
2142.410000,2616.740000,122.060000,13.000000,375.477692,2264.470000,0.865378,352.270000,0
2563.090000,3002.170000,0.000000,13.000000,428.096923,2563.090000,0.853746,439.080000,0
2113.490000,2421.830000,220.600000,17.000000,279.760000,2334.090000,0.963771,87.740000,1
2042.810000,2391.410000,86.090000,16.000000,282.519375,2128.900000,0.890228,262.510000,0
2551.980000,2719.350000,99.310000,10.000000,537.064000,2651.290000,0.974972,68.060000,1
3004.740000,2724.120000,121.220000,10.000000,585.008000,3125.960000,1.147512,-401.840000,1
2351.080000,2613.420000,124.910000,21.000000,242.352857,2475.990000,0.947414,137.430000,1
1717.410000,2380.250000,87.260000,11.000000,380.447273,1804.670000,0.758185,575.580000,0
723.080000,965.870000,55.090000,19.000000,91.791579,778.170000,0.805667,187.700000,0
912.720000,1061.010000,47.430000,12.000000,168.430000,960.150000,0.904940,100.860000,1
663.000000,932.730000,46.070000,17.000000,96.576471,709.070000,0.760209,223.660000,0
756.360000,1068.960000,84.230000,16.000000,119.346875,840.590000,0.786362,228.370000,0
860.670000,1160.820000,0.000000,11.000000,183.771818,860.670000,0.741433,300.150000,0
588.630000,820.180000,112.110000,19.000000,80.048421,700.740000,0.854373,119.440000,0
815.230000,1030.690000,46.890000,11.000000,172.073636,862.120000,0.836449,168.570000,0
735.030000,970.780000,39.960000,18.000000,96.987222,774.990000,0.798317,195.790000,0
672.000000,978.320000,54.180000,13.000000,131.115385,726.180000,0.742272,252.140000,0
771.220000,996.020000,61.410000,11.000000,166.240909,832.630000,0.835957,163.390000,0
848.190000,1101.420000,42.670000,18.000000,110.682222,890.860000,0.808829,210.560000,0
714.310000,1032.770000,52.310000,15.000000,119.959333,766.620000,0.742295,266.150000,0
1965.740000,2768.550000,225.570000,16.000000,309.991250,2191.310000,0.791501,577.240000,0
1836.780000,2536.090000,0.000000,18.000000,242.937222,1836.780000,0.724257,699.310000,0
2011.990000,2779.230000,441.770000,13.000000,402.537692,2453.760000,0.882892,325.470000,0
1794.600000,2595.610000,162.980000,13.000000,350.245385,1957.580000,0.754189,638.030000,0
1472.340000,2174.690000,235.990000,20.000000,194.151000,1708.330000,0.785551,466.360000,0
1744.490000,2740.320000,233.150000,12.000000,393.163333,1977.640000,0.721682,762.680000,0
1765.600000,2469.390000,255.370000,15.000000,299.357333,2020.970000,0.818409,448.420000,0
1884.120000,2397.810000,184.160000,13.000000,343.545385,2068.280000,0.862570,329.530000,0
2624.310000,2768.260000,202.070000,13.000000,430.356923,2826.380000,1.020995,-58.120000,1
1700.080000,2946.910000,226.740000,14.000000,348.123571,1926.820000,0.653844,1020.090000,0
1808.820000,2273.320000,225.580000,11.000000,391.610909,2034.400000,0.894903,238.920000,0
1960.670000,2869.160000,278.470000,20.000000,255.415000,2239.140000,0.780417,630.020000,0
1585.650000,2227.370000,171.410000,12.000000,332.035833,1757.060000,0.788850,470.310000,0
1607.150000,1969.590000,148.010000,10.000000,372.475000,1755.160000,0.891130,214.430000,0
1574.630000,1888.540000,153.370000,21.000000,172.216190,1728.000000,0.914993,160.540000,1
1674.360000,2006.260000,112.420000,14.000000,270.931429,1786.780000,0.890602,219.480000,0
1612.340000,2141.210000,99.480000,17.000000,226.648824,1711.820000,0.799464,429.390000,0
1603.250000,2054.890000,174.340000,21.000000,182.499048,1777.590000,0.865054,277.300000,0
1492.030000,1873.410000,112.030000,15.000000,231.831333,1604.060000,0.856225,269.350000,0
1552.160000,2025.800000,167.430000,21.000000,178.351905,1719.590000,0.848845,306.210000,0
1548.250000,2010.820000,104.660000,18.000000,203.540556,1652.910000,0.822008,357.910000,0
1146.630000,1888.170000,204.920000,11.000000,294.520000,1351.550000,0.715799,536.620000,0
1391.930000,1951.180000,160.540000,14.000000,250.260714,1552.470000,0.795657,398.710000,0
1461.860000,2070.400000,128.440000,11.000000,332.790909,1590.300000,0.768112,480.100000,0
1921.760000,2263.150000,222.450000,17.000000,259.256471,2144.210000,0.947445,118.940000,1
1648.870000,1871.790000,194.410000,11.000000,337.733636,1843.280000,0.984769,28.510000,1
1903.000000,2304.980000,0.000000,15.000000,280.532000,1903.000000,0.825604,401.980000,0
2018.660000,2526.810000,476.480000,15.000000,334.796667,2495.140000,0.987466,31.670000,1
1842.320000,2164.030000,0.000000,16.000000,250.396875,1842.320000,0.851338,321.710000,0
2037.470000,2300.850000,448.270000,13.000000,368.199231,2485.740000,1.080357,-184.890000,1
1666.870000,1891.710000,179.470000,16.000000,233.628125,1846.340000,0.976016,45.370000,1
2400.720000,2397.790000,228.230000,12.000000,418.895000,2628.950000,1.096405,-231.160000,1
1932.420000,2397.120000,152.010000,11.000000,407.413636,2084.430000,0.869556,312.690000,0
1842.640000,2407.710000,147.110000,12.000000,366.455000,1989.750000,0.826408,417.960000,0
1949.770000,2235.390000,224.440000,18.000000,244.977778,2174.210000,0.972631,61.180000,1
1986.010000,2375.760000,213.930000,17.000000,269.158824,2199.940000,0.925994,175.820000,1
1613.210000,2322.840000,170.140000,13.000000,315.860769,1783.350000,0.767746,539.490000,0
1547.660000,2205.560000,247.820000,12.000000,333.420000,1795.480000,0.814070,410.080000,0
1846.000000,2359.970000,239.540000,20.000000,222.275500,2085.540000,0.883715,274.430000,0
1834.220000,2256.560000,164.190000,10.000000,425.497000,1998.410000,0.885600,258.150000,0
1786.790000,2165.790000,200.000000,10.000000,415.258000,1986.790000,0.917351,179.000000,1
1560.110000,2236.420000,194.450000,16.000000,249.436250,1754.560000,0.784540,481.860000,0
1659.090000,2327.290000,212.420000,12.000000,349.900000,1871.510000,0.804158,455.780000,0
1245.470000,1831.210000,162.370000,19.000000,170.476316,1407.840000,0.768803,423.370000,0
1810.580000,2287.250000,255.090000,15.000000,290.194667,2065.670000,0.903124,221.580000,1
1530.910000,1873.600000,201.390000,14.000000,257.564286,1732.300000,0.924584,141.300000,1
2124.760000,2710.840000,240.750000,21.000000,241.730952,2365.510000,0.872611,345.330000,0
1744.100000,2229.390000,190.850000,15.000000,277.622667,1934.950000,0.867928,294.440000,0
1866.180000,2365.870000,113.570000,18.000000,241.423333,1979.750000,0.836796,386.120000,0
1953.180000,2269.240000,108.850000,13.000000,333.174615,2062.030000,0.908687,207.210000,1
1681.230000,1846.240000,83.900000,20.000000,180.568500,1765.130000,0.956067,81.110000,1
1605.420000,2353.370000,0.000000,10.000000,395.879000,1605.420000,0.682179,747.950000,0
1692.540000,2124.910000,167.840000,12.000000,332.107500,1860.380000,0.875510,264.530000,0
2011.650000,2058.610000,57.450000,11.000000,375.246364,2069.100000,1.005096,-10.490000,1
1558.900000,2036.010000,86.610000,11.000000,334.683636,1645.510000,0.808203,390.500000,0
1902.690000,2089.110000,66.340000,17.000000,238.714118,1969.030000,0.942521,120.080000,1
1955.360000,2181.520000,101.540000,20.000000,211.921000,2056.900000,0.942875,124.620000,1
1612.520000,2086.680000,86.370000,10.000000,378.557000,1698.890000,0.814159,387.790000,0
1723.730000,2294.510000,102.790000,12.000000,343.419167,1826.520000,0.796039,467.990000,0
1910.070000,2115.700000,126.670000,13.000000,319.418462,2036.740000,0.962679,78.960000,1
1561.030000,1532.820000,100.910000,18.000000,177.486667,1661.940000,1.084237,-129.120000,1
1360.660000,1439.780000,85.590000,18.000000,160.335000,1446.250000,1.004494,-6.470000,1
1317.000000,1466.750000,84.480000,13.000000,220.633077,1401.480000,0.955500,65.270000,1
1172.010000,1472.490000,76.440000,21.000000,129.568571,1248.450000,0.847850,224.040000,0
1412.940000,1665.020000,95.540000,13.000000,244.115385,1508.480000,0.905983,156.540000,1
1358.070000,1570.690000,0.000000,11.000000,266.250909,1358.070000,0.864633,212.620000,0
1712.340000,1693.630000,176.270000,16.000000,223.890000,1888.610000,1.115125,-194.980000,1
1436.310000,1642.130000,120.970000,16.000000,199.963125,1557.280000,0.948329,84.850000,1
1126.500000,1336.910000,54.450000,10.000000,251.786000,1180.950000,0.883343,155.960000,0
1546.510000,1601.090000,100.430000,12.000000,270.669167,1646.940000,1.028637,-45.850000,1
1298.540000,1634.070000,85.110000,11.000000,274.338182,1383.650000,0.846751,250.420000,0
1165.830000,1445.630000,76.290000,17.000000,158.102941,1242.120000,0.859224,203.510000,0
1383.100000,1744.260000,271.060000,18.000000,188.801111,1654.160000,0.948345,90.100000,1
1226.900000,1550.660000,316.190000,12.000000,257.812500,1543.090000,0.995118,7.570000,1
1215.130000,1567.980000,300.520000,15.000000,205.575333,1515.650000,0.966626,52.330000,1
1604.110000,1711.690000,0.000000,12.000000,276.316667,1604.110000,0.937150,107.580000,1
1164.960000,1548.380000,442.660000,17.000000,185.647059,1607.620000,1.038259,-59.240000,1
1406.670000,1735.890000,311.200000,11.000000,313.978182,1717.870000,0.989619,18.020000,1
1409.530000,1743.040000,283.810000,14.000000,245.455714,1693.340000,0.971487,49.700000,1
1063.430000,1448.160000,195.200000,18.000000,150.377222,1258.630000,0.869124,189.530000,0
1227.560000,1953.180000,421.270000,19.000000,189.579474,1648.830000,0.844177,304.350000,0
1182.310000,1733.580000,232.610000,11.000000,286.227273,1414.920000,0.816184,318.660000,0
1089.760000,1571.820000,289.110000,21.000000,140.509048,1378.870000,0.877244,192.950000,0
1448.200000,1903.390000,314.830000,10.000000,366.642000,1763.030000,0.926258,140.360000,1
1108.310000,1885.290000,299.430000,10.000000,329.303000,1407.740000,0.746697,477.550000,0
1579.810000,1892.040000,0.000000,16.000000,216.990625,1579.810000,0.834977,312.230000,0
1262.250000,1643.470000,526.710000,15.000000,228.828667,1788.960000,1.088526,-145.490000,1
1126.740000,1865.110000,276.720000,21.000000,155.646190,1403.460000,0.752481,461.650000,0
1453.520000,1761.280000,288.010000,16.000000,218.925625,1741.530000,0.988787,19.750000,1
1285.250000,1874.110000,363.650000,15.000000,234.867333,1648.900000,0.879831,225.210000,0
1301.530000,1950.690000,329.830000,10.000000,358.205000,1631.360000,0.836299,319.330000,0
1143.830000,1590.410000,262.130000,20.000000,149.818500,1405.960000,0.884024,184.450000,0
1305.270000,1764.040000,254.230000,19.000000,174.923158,1559.500000,0.884050,204.540000,0
1367.890000,1792.120000,384.500000,15.000000,236.300667,1752.390000,0.977831,39.730000,1
1372.830000,1966.050000,336.510000,11.000000,334.126364,1709.340000,0.869429,256.710000,0
1253.400000,1885.130000,294.450000,18.000000,190.721111,1547.850000,0.821084,337.280000,0
482.430000,599.460000,58.360000,13.000000,87.711538,540.790000,0.902129,58.670000,1
467.640000,551.870000,0.000000,11.000000,92.682727,467.640000,0.847373,84.230000,0
496.090000,595.700000,128.780000,12.000000,101.714167,624.870000,1.048968,-29.170000,1
468.920000,608.230000,55.130000,15.000000,75.485333,524.050000,0.861598,84.180000,0
442.750000,555.140000,67.400000,17.000000,62.664118,510.150000,0.918957,44.990000,1
442.370000,554.510000,56.210000,19.000000,55.425789,498.580000,0.899136,55.930000,0
348.070000,450.870000,65.220000,12.000000,72.013333,413.290000,0.916650,37.580000,1
479.960000,593.170000,54.740000,15.000000,75.191333,534.700000,0.901428,58.470000,1
375.320000,470.310000,37.730000,19.000000,46.492632,413.050000,0.878251,57.260000,0
460.750000,589.800000,55.690000,12.000000,92.186667,516.440000,0.875619,73.360000,0
464.230000,631.790000,62.180000,19.000000,60.957895,526.410000,0.833204,105.380000,0
429.020000,557.580000,66.430000,12.000000,87.752500,495.450000,0.888572,62.130000,0
1956.890000,2652.290000,161.970000,14.000000,340.796429,2118.860000,0.798879,533.430000,0
1993.690000,2363.710000,133.670000,12.000000,374.255833,2127.360000,0.900009,236.350000,1
1993.930000,2290.680000,138.240000,17.000000,260.167647,2132.170000,0.930802,158.510000,1
1833.170000,2307.010000,139.900000,21.000000,203.813333,1973.070000,0.855250,333.940000,0
1687.400000,2360.740000,113.550000,19.000000,219.036316,1800.950000,0.762875,559.790000,0
1673.880000,2352.240000,118.600000,12.000000,345.393333,1792.480000,0.762031,559.760000,0
1899.680000,2554.310000,123.320000,12.000000,381.442500,2023.000000,0.791995,531.310000,0
2116.720000,2510.350000,131.410000,18.000000,264.360000,2248.130000,0.895544,262.220000,0
1887.250000,2560.280000,129.560000,14.000000,326.935000,2016.810000,0.787730,543.470000,0
1833.300000,2309.850000,133.920000,17.000000,251.592353,1967.220000,0.851666,342.630000,0
1799.340000,2471.000000,156.050000,20.000000,221.319500,1955.390000,0.791335,515.610000,0
1965.420000,2225.560000,115.660000,13.000000,331.280000,2081.080000,0.935082,144.480000,1
1323.930000,1977.650000,115.300000,18.000000,189.826667,1439.230000,0.727748,538.420000,0
1604.440000,1992.250000,117.290000,16.000000,232.123750,1721.730000,0.864214,270.520000,0
1482.120000,1865.880000,139.930000,20.000000,174.396500,1622.050000,0.869322,243.830000,0
1563.450000,1858.870000,119.500000,21.000000,168.658095,1682.950000,0.905362,175.920000,1
1425.370000,1871.930000,0.000000,18.000000,183.183333,1425.370000,0.761444,446.560000,0
1234.570000,1762.050000,235.470000,15.000000,215.472667,1470.040000,0.834278,292.010000,0
1409.700000,1745.120000,127.420000,15.000000,218.816000,1537.120000,0.880810,208.000000,0
1736.770000,1823.250000,129.660000,18.000000,204.982222,1866.430000,1.023683,-43.180000,1
1607.280000,1933.130000,126.900000,11.000000,333.391818,1734.180000,0.897084,198.950000,0
1501.550000,2071.100000,142.660000,21.000000,176.919524,1644.210000,0.793882,426.890000,0
1612.760000,2048.750000,172.860000,17.000000,225.551176,1785.620000,0.871566,263.130000,0
1161.910000,1687.310000,143.530000,12.000000,249.395833,1305.440000,0.773681,381.870000,0
1337.490000,2077.400000,206.590000,21.000000,172.451429,1544.080000,0.743275,533.320000,0
1733.040000,2530.770000,0.000000,13.000000,327.985385,1733.040000,0.684788,797.730000,0
1362.480000,2142.160000,400.080000,13.000000,300.363077,1762.560000,0.822796,379.600000,0
1337.940000,1942.730000,230.750000,15.000000,234.094667,1568.690000,0.807467,374.040000,0
1558.300000,2144.860000,234.130000,15.000000,262.486000,1792.430000,0.835686,352.430000,0
1526.830000,1985.010000,161.540000,21.000000,174.922857,1688.370000,0.850560,296.640000,0
1304.030000,1946.850000,179.030000,18.000000,190.550556,1483.060000,0.761774,463.790000,0
1388.620000,2065.840000,239.160000,18.000000,205.201111,1627.780000,0.787951,438.060000,0
1418.460000,2135.730000,231.360000,13.000000,291.196154,1649.820000,0.772485,485.910000,0
1266.200000,1937.670000,203.330000,14.000000,243.371429,1469.530000,0.758401,468.140000,0
1213.640000,1823.110000,146.510000,17.000000,187.250588,1360.150000,0.746060,462.960000,0
1632.570000,2114.450000,286.300000,15.000000,268.888000,1918.870000,0.907503,195.580000,1
1701.500000,2080.150000,112.960000,19.000000,204.979474,1814.460000,0.872274,265.690000,0
1804.020000,2251.280000,0.000000,18.000000,225.294444,1804.020000,0.801331,447.260000,0
1665.860000,2400.780000,261.830000,13.000000,332.959231,1927.690000,0.802943,473.090000,0
1826.970000,2216.880000,143.510000,13.000000,322.104615,1970.480000,0.888853,246.400000,0
1992.010000,2162.040000,108.980000,16.000000,266.439375,2100.990000,0.971763,61.050000,1
1599.440000,1887.290000,63.970000,11.000000,322.790909,1663.410000,0.881375,223.880000,0
1965.560000,2281.820000,126.820000,19.000000,230.221053,2092.380000,0.916979,189.440000,1
1943.970000,2404.090000,106.100000,20.000000,222.708000,2050.070000,0.852743,354.020000,0
1625.510000,2057.470000,119.660000,13.000000,292.510769,1745.170000,0.848212,312.300000,0
1940.020000,2326.230000,0.000000,19.000000,224.539474,1940.020000,0.833976,386.210000,0
1734.090000,2329.760000,252.450000,16.000000,269.768750,1986.540000,0.852680,343.220000,0
1812.200000,2480.680000,125.730000,21.000000,210.410000,1937.930000,0.781209,542.750000,0
1241.410000,1627.970000,88.670000,14.000000,211.289286,1330.080000,0.817018,297.890000,0
1547.910000,1850.600000,0.000000,15.000000,226.567333,1547.910000,0.836437,302.690000,0
1774.190000,2147.430000,103.770000,11.000000,365.944545,1877.960000,0.874515,269.470000,0
1953.100000,2117.060000,266.030000,21.000000,206.485238,2219.130000,1.048213,-102.070000,1
1929.240000,2191.290000,106.370000,20.000000,211.345000,2035.610000,0.928955,155.680000,1
1826.700000,2279.940000,130.800000,15.000000,282.496000,1957.500000,0.858575,322.440000,0
1535.920000,1735.810000,116.070000,15.000000,225.853333,1651.990000,0.951711,83.820000,1
1553.900000,2012.840000,118.780000,14.000000,263.251429,1672.680000,0.831005,340.160000,0
1778.970000,2055.570000,145.030000,13.000000,306.120769,1924.000000,0.935993,131.570000,1
1762.810000,1886.780000,111.490000,14.000000,268.648571,1874.300000,0.993386,12.480000,1
1984.730000,2107.160000,116.170000,20.000000,210.403000,2100.900000,0.997029,6.260000,1
1574.260000,1797.730000,111.700000,10.000000,348.369000,1685.960000,0.937827,111.770000,1
1081.210000,1467.320000,60.720000,10.000000,260.925000,1141.930000,0.778242,325.390000,0
1570.430000,1870.950000,0.000000,9.000000,382.375556,1570.430000,0.839376,300.520000,0
1970.110000,1829.550000,151.210000,12.000000,329.239167,2121.320000,1.159476,-291.770000,1
1428.770000,1896.710000,68.770000,15.000000,226.283333,1497.540000,0.789546,399.170000,0
1490.350000,1683.620000,60.830000,21.000000,154.038095,1551.180000,0.921336,132.440000,1
1345.630000,1591.300000,55.110000,18.000000,166.224444,1400.740000,0.880249,190.560000,0
1059.260000,1355.540000,54.550000,19.000000,129.965789,1113.810000,0.821673,241.730000,0
1341.570000,1631.440000,69.780000,17.000000,178.987647,1411.350000,0.865095,220.090000,0
1479.100000,1880.020000,83.100000,17.000000,202.483529,1562.200000,0.830949,317.820000,0
1474.180000,1555.650000,87.730000,11.000000,283.414545,1561.910000,1.004024,-6.260000,1
1335.680000,1626.650000,73.780000,15.000000,202.407333,1409.460000,0.866480,217.190000,0
1444.430000,1756.740000,106.850000,14.000000,236.287143,1551.280000,0.883045,205.460000,0
572.720000,828.340000,0.000000,18.000000,77.836667,572.720000,0.691407,255.620000,0
776.960000,955.000000,186.850000,16.000000,119.925625,963.810000,1.009225,-8.810000,1
718.280000,927.140000,0.000000,15.000000,109.694667,718.280000,0.774727,208.860000,0
885.810000,1018.860000,148.580000,18.000000,114.069444,1034.390000,1.015243,-15.530000,1
636.120000,833.600000,59.330000,14.000000,109.217857,695.450000,0.834273,138.150000,0
678.090000,949.760000,0.000000,20.000000,81.392500,678.090000,0.713959,271.670000,0
644.840000,859.330000,147.270000,19.000000,86.917895,792.110000,0.921776,67.220000,1
692.530000,965.670000,42.000000,11.000000,154.563636,734.530000,0.760643,231.140000,0
817.080000,885.610000,94.380000,13.000000,138.236154,911.460000,1.029189,-25.850000,1
605.940000,821.410000,83.850000,14.000000,107.942857,689.790000,0.839763,131.620000,0
788.910000,1093.460000,74.450000,11.000000,177.892727,863.360000,0.789567,230.100000,0
716.220000,882.780000,78.220000,19.000000,88.274737,794.440000,0.899930,88.340000,0
1903.010000,1942.360000,145.190000,18.000000,221.697778,2048.200000,1.054490,-105.840000,1
1701.200000,1731.620000,108.810000,12.000000,295.135833,1810.010000,1.045270,-78.390000,1
1815.530000,1626.420000,149.210000,12.000000,299.263333,1964.740000,1.208015,-338.320000,1
1522.660000,1657.490000,168.100000,15.000000,223.216667,1690.760000,1.020073,-33.270000,1
1395.360000,1824.220000,159.250000,14.000000,241.345000,1554.610000,0.852205,269.610000,0
1207.230000,1442.790000,122.360000,21.000000,132.018095,1329.590000,0.921541,113.200000,1
1613.930000,1771.230000,130.880000,16.000000,219.752500,1744.810000,0.985084,26.420000,1
1692.350000,1951.390000,175.110000,14.000000,272.775000,1867.460000,0.956990,83.930000,1
1797.420000,1956.270000,143.890000,11.000000,354.325455,1941.310000,0.992353,14.960000,1
1456.460000,1756.290000,140.650000,18.000000,186.300000,1597.110000,0.909366,159.180000,1
1730.690000,1939.420000,166.500000,16.000000,239.788125,1897.190000,0.978225,42.230000,1
1251.900000,1626.990000,200.000000,14.000000,219.920714,1451.900000,0.892384,175.090000,0
1093.220000,1972.280000,66.970000,11.000000,284.770000,1160.190000,0.588248,812.090000,0
1296.650000,2003.330000,0.000000,18.000000,183.332222,1296.650000,0.647247,706.680000,0
1567.000000,2079.490000,350.280000,19.000000,210.356316,1917.280000,0.921995,162.210000,1
1657.890000,2011.640000,102.830000,11.000000,342.941818,1760.720000,0.875266,250.920000,0
1444.450000,1704.260000,72.580000,18.000000,178.960556,1517.030000,0.890140,187.230000,0
1548.720000,2114.850000,0.000000,18.000000,203.531667,1548.720000,0.732307,566.130000,0
1540.540000,2159.410000,325.120000,21.000000,191.670000,1865.660000,0.863967,293.750000,0
1593.890000,2056.790000,154.210000,12.000000,317.074167,1748.100000,0.849917,308.690000,0
1485.230000,1946.980000,152.020000,13.000000,275.710000,1637.250000,0.840918,309.730000,0
1656.920000,2253.650000,196.290000,20.000000,205.343000,1853.210000,0.822315,400.440000,0
1786.670000,2153.160000,142.220000,17.000000,240.120588,1928.890000,0.895841,224.270000,0
1690.940000,1980.600000,107.640000,17.000000,222.304706,1798.580000,0.908099,182.020000,1
1215.750000,1762.880000,210.860000,14.000000,227.820714,1426.610000,0.809250,336.270000,0
1689.930000,2314.150000,0.000000,16.000000,250.255000,1689.930000,0.730259,624.220000,0
1658.150000,2034.600000,452.070000,20.000000,207.241000,2110.220000,1.037167,-75.620000,1
1735.180000,1984.000000,221.840000,19.000000,207.422105,1957.020000,0.986401,26.980000,1
1424.140000,2127.030000,136.890000,16.000000,230.503750,1561.030000,0.733901,566.000000,0
1411.290000,1840.690000,166.730000,20.000000,170.935500,1578.020000,0.857298,262.670000,0
1468.940000,1861.530000,201.400000,14.000000,252.276429,1670.340000,0.897294,191.190000,0
1276.140000,1800.130000,122.520000,15.000000,213.252667,1398.660000,0.776977,401.470000,0
1892.730000,2063.340000,224.750000,11.000000,380.074545,2117.480000,1.026239,-54.140000,1
1565.900000,1888.320000,148.370000,11.000000,327.508182,1714.270000,0.907828,174.050000,1
1873.200000,2039.810000,196.040000,17.000000,241.708824,2069.240000,1.014428,-29.430000,1
1640.200000,1949.930000,250.000000,20.000000,192.006500,1890.200000,0.969368,59.730000,1
2293.990000,2708.290000,95.420000,19.000000,268.300000,2389.410000,0.882258,318.880000,0
1797.410000,2573.980000,102.880000,16.000000,279.641875,1900.290000,0.738269,673.690000,0
1865.850000,2783.330000,115.490000,10.000000,476.467000,1981.340000,0.711860,801.990000,0
2229.790000,2731.270000,116.280000,13.000000,390.564615,2346.070000,0.858967,385.200000,0
2726.760000,3154.470000,87.710000,20.000000,298.447000,2814.470000,0.892216,340.000000,0
2097.920000,2590.020000,104.490000,13.000000,368.648462,2202.410000,0.850345,387.610000,0
1948.400000,2963.690000,0.000000,10.000000,491.209000,1948.400000,0.657424,1015.290000,0
2415.330000,3036.250000,191.480000,22.000000,256.502727,2606.810000,0.858562,429.440000,0
2405.100000,2845.470000,68.280000,14.000000,379.917857,2473.380000,0.869234,372.090000,0
2142.350000,2770.770000,104.070000,14.000000,358.370714,2246.420000,0.810757,524.350000,0
2274.230000,2742.120000,96.790000,21.000000,243.482857,2371.020000,0.864667,371.100000,0
2391.070000,2645.480000,97.320000,16.000000,320.866875,2488.390000,0.940619,157.090000,1
1766.850000,2252.110000,258.850000,18.000000,237.656111,2025.700000,0.899468,226.410000,0
1912.550000,2426.690000,439.930000,17.000000,281.127647,2352.480000,0.969419,74.210000,1
1854.440000,2280.160000,279.840000,17.000000,259.672941,2134.280000,0.936022,145.880000,1
1958.880000,2386.840000,370.080000,21.000000,224.561905,2328.960000,0.975750,57.880000,1
1747.040000,2417.410000,327.010000,17.000000,264.203529,2074.050000,0.857964,343.360000,0
1959.450000,2359.700000,354.450000,17.000000,274.917647,2313.900000,0.980591,45.800000,1
1581.640000,2137.090000,369.230000,18.000000,227.108889,1950.870000,0.912863,186.220000,1
1774.300000,2212.040000,249.290000,20.000000,211.781500,2023.590000,0.914807,188.450000,1
1723.140000,2318.360000,274.450000,14.000000,308.282143,1997.590000,0.861639,320.770000,0
1961.780000,2372.000000,298.050000,10.000000,463.183000,2259.830000,0.952711,112.170000,1
2028.140000,2560.530000,325.120000,16.000000,307.111875,2353.260000,0.919052,207.270000,1
2060.160000,2607.770000,345.340000,11.000000,455.751818,2405.500000,0.922436,202.270000,1
1055.190000,1178.280000,0.000000,16.000000,139.591875,1055.190000,0.895534,123.090000,0
919.950000,1112.400000,20.570000,22.000000,93.314545,940.520000,0.845487,171.880000,0
1104.700000,1173.940000,15.830000,20.000000,114.723500,1120.530000,0.954504,53.410000,1
1066.770000,1118.000000,11.200000,20.000000,109.798500,1077.970000,0.964195,40.030000,1
868.420000,1118.110000,12.720000,11.000000,181.750000,881.140000,0.788062,236.970000,0
970.590000,1154.010000,13.080000,21.000000,101.794286,983.670000,0.852393,170.340000,0
986.600000,1265.590000,17.440000,12.000000,189.135833,1004.040000,0.793337,261.550000,0
962.380000,1057.110000,13.440000,19.000000,106.996316,975.820000,0.923102,81.290000,1
1079.550000,1089.870000,11.370000,20.000000,109.039500,1090.920000,1.000963,-1.050000,1
1044.760000,1160.440000,10.440000,20.000000,110.782000,1055.200000,0.909310,105.240000,1
1046.160000,1200.520000,12.960000,15.000000,150.642667,1059.120000,0.882218,141.400000,0
907.310000,1278.370000,15.970000,14.000000,157.260714,923.280000,0.722232,355.090000,0
1577.980000,1959.000000,0.000000,19.000000,186.156842,1577.980000,0.805503,381.020000,0
1703.070000,1967.670000,317.420000,15.000000,265.877333,2020.490000,1.026844,-52.820000,1
2173.500000,2192.860000,171.320000,16.000000,283.605000,2344.820000,1.069298,-151.960000,1
1944.260000,2100.520000,194.660000,18.000000,235.524444,2138.920000,1.018281,-38.400000,1
2011.970000,2272.930000,198.430000,15.000000,298.888667,2210.400000,0.972489,62.530000,1
1672.480000,2178.880000,153.370000,15.000000,266.982000,1825.850000,0.837976,353.030000,0
1663.110000,2039.730000,188.360000,15.000000,259.413333,1851.470000,0.907703,188.260000,1
1780.150000,1883.050000,138.430000,10.000000,380.163000,1918.580000,1.018868,-35.530000,1
1410.990000,1843.430000,124.740000,13.000000,259.935385,1535.730000,0.833083,307.700000,0
1751.550000,2080.390000,150.730000,19.000000,209.614211,1902.280000,0.914386,178.110000,1
1567.590000,2055.550000,143.580000,10.000000,376.672000,1711.170000,0.832463,344.380000,0
2184.340000,2288.180000,203.710000,13.000000,359.710000,2388.050000,1.043646,-99.870000,1
1782.520000,2109.510000,131.330000,13.000000,309.489231,1913.850000,0.907249,195.660000,1
1338.460000,1810.910000,84.690000,15.000000,215.604000,1423.150000,0.785876,387.760000,0
1931.530000,2231.360000,151.370000,21.000000,205.440952,2082.900000,0.933467,148.460000,1
1869.600000,2333.240000,172.440000,10.000000,437.528000,2042.040000,0.875195,291.200000,0
1582.040000,1884.320000,141.120000,19.000000,189.867368,1723.160000,0.914473,161.160000,1
1656.110000,1994.870000,121.510000,17.000000,221.911176,1777.620000,0.891096,217.250000,0
1783.120000,2035.370000,111.000000,12.000000,327.457500,1894.120000,0.930602,141.250000,1
1822.430000,2169.910000,124.930000,14.000000,294.090714,1947.360000,0.897438,222.550000,0
1930.520000,2257.990000,107.210000,10.000000,429.572000,2037.730000,0.902453,220.260000,1
2159.880000,2232.200000,174.270000,15.000000,304.423333,2334.150000,1.045672,-101.950000,1
1817.790000,2132.770000,111.790000,17.000000,238.961765,1929.580000,0.904730,203.190000,1
1764.060000,2117.080000,120.330000,10.000000,400.147000,1884.390000,0.890089,232.690000,0
1329.780000,1614.290000,114.990000,14.000000,218.504286,1444.770000,0.894988,169.520000,0
1342.340000,1629.390000,138.900000,11.000000,282.784545,1481.240000,0.909076,148.150000,1
1367.000000,1523.660000,90.800000,12.000000,248.455000,1457.800000,0.956775,65.860000,1
1105.190000,1426.410000,100.580000,15.000000,175.478667,1205.770000,0.845318,220.640000,0
1604.160000,1650.250000,82.560000,17.000000,196.292353,1686.720000,1.022100,-36.470000,1
1074.890000,1218.460000,83.810000,20.000000,118.858000,1158.700000,0.950954,59.760000,1
1327.550000,1520.890000,119.870000,15.000000,197.887333,1447.420000,0.951693,73.470000,1
1223.620000,1537.740000,91.410000,11.000000,259.342727,1315.030000,0.855171,222.710000,0
1316.780000,1495.050000,99.710000,12.000000,242.628333,1416.490000,0.947453,78.560000,1
1162.810000,1554.240000,94.970000,13.000000,216.309231,1257.780000,0.809257,296.460000,0
1308.000000,1596.500000,76.730000,17.000000,175.366471,1384.730000,0.867354,211.770000,0
1191.310000,1358.610000,83.770000,16.000000,164.605625,1275.080000,0.938518,83.530000,1
1647.560000,2061.840000,122.420000,20.000000,191.591000,1769.980000,0.858447,291.860000,0
1609.890000,1989.300000,157.370000,17.000000,220.974118,1767.260000,0.888383,222.040000,0
1613.580000,1900.520000,130.360000,20.000000,182.223000,1743.940000,0.917612,156.580000,1
1480.380000,1832.210000,128.830000,13.000000,264.724615,1609.210000,0.878289,223.000000,0
1846.140000,2123.320000,90.850000,21.000000,193.348095,1936.990000,0.912246,186.330000,1
1875.920000,2065.310000,162.320000,11.000000,373.050000,2038.240000,0.986893,27.070000,1
1538.860000,1879.820000,126.300000,12.000000,295.415000,1665.160000,0.885808,214.660000,0
1562.390000,1946.310000,87.790000,10.000000,359.649000,1650.180000,0.847851,296.130000,0
1866.760000,2088.980000,131.440000,18.000000,227.065556,1998.200000,0.956543,90.780000,1
1674.820000,1972.680000,177.130000,16.000000,239.039375,1851.950000,0.938799,120.730000,1
1850.250000,2030.740000,128.270000,17.000000,235.838824,1978.520000,0.974285,52.220000,1
1870.730000,1990.740000,160.480000,13.000000,309.380769,2031.210000,1.020329,-40.470000,1
1827.020000,2025.040000,20.820000,10.000000,387.288000,1847.840000,0.912496,177.200000,1
1900.100000,2334.740000,0.000000,15.000000,282.322667,1900.100000,0.813838,434.640000,0
1957.030000,2275.990000,49.000000,21.000000,203.905714,2006.030000,0.881388,269.960000,0
2491.650000,2698.350000,20.220000,21.000000,248.105714,2511.870000,0.930891,186.480000,1
2433.170000,2568.890000,0.000000,14.000000,357.290000,2433.170000,0.947168,135.720000,1
2410.070000,2427.800000,66.970000,13.000000,377.295385,2477.040000,1.020282,-49.240000,1
1930.670000,2072.920000,22.170000,12.000000,335.480000,1952.840000,0.942072,120.080000,1
2237.140000,2298.270000,29.350000,12.000000,380.396667,2266.490000,0.986172,31.780000,1
2177.630000,2548.710000,30.530000,17.000000,279.815882,2208.160000,0.866383,340.550000,0
1857.670000,2449.950000,31.580000,18.000000,241.066667,1889.250000,0.771138,560.700000,0
1762.830000,2210.510000,17.250000,17.000000,234.740588,1780.080000,0.805280,430.430000,0
1830.470000,2118.110000,20.800000,12.000000,330.781667,1851.270000,0.874020,266.840000,0
1008.910000,1242.300000,153.800000,20.000000,120.250500,1162.710000,0.935933,79.590000,1
898.290000,1219.420000,110.720000,18.000000,123.801667,1009.010000,0.827451,210.410000,0
842.700000,1181.820000,113.910000,19.000000,112.548947,956.610000,0.809438,225.210000,0
1135.200000,1384.840000,0.000000,20.000000,126.002000,1135.200000,0.819734,249.640000,0
1132.010000,1417.090000,253.660000,21.000000,133.464762,1385.670000,0.977828,31.420000,1
843.420000,1097.380000,102.510000,10.000000,204.331000,945.930000,0.861989,151.450000,0
1083.070000,1437.460000,151.830000,11.000000,242.941818,1234.900000,0.859085,202.560000,0
1178.910000,1336.060000,118.500000,15.000000,175.564667,1297.410000,0.971072,38.650000,1
889.070000,1203.410000,134.510000,10.000000,222.699000,1023.580000,0.850566,179.830000,0
1041.980000,1368.140000,129.280000,21.000000,120.923810,1171.260000,0.856097,196.880000,0
811.520000,1147.810000,79.790000,17.000000,119.948235,891.310000,0.776531,256.500000,0
1053.110000,1361.780000,130.620000,19.000000,133.974211,1183.730000,0.869252,178.050000,0
1294.200000,1896.010000,207.460000,12.000000,283.139167,1501.660000,0.792011,394.350000,0
1207.630000,1707.460000,181.120000,21.000000,147.438571,1388.750000,0.813343,318.710000,0
1243.730000,1763.920000,264.540000,20.000000,163.609500,1508.270000,0.855067,255.650000,0
1470.260000,2164.230000,201.660000,18.000000,213.119444,1671.920000,0.772524,492.310000,0
1461.390000,1916.660000,171.750000,14.000000,253.557143,1633.140000,0.852076,283.520000,0
1310.850000,1826.550000,233.820000,16.000000,210.701250,1544.670000,0.845676,281.880000,0
856.690000,1702.950000,244.040000,13.000000,215.667692,1100.730000,0.646367,602.220000,0
1355.980000,1720.280000,229.270000,12.000000,275.460833,1585.250000,0.921507,135.030000,1
1328.090000,2042.330000,235.690000,15.000000,240.407333,1563.780000,0.765684,478.550000,0
1386.350000,1792.450000,191.480000,10.000000,337.028000,1577.830000,0.880264,214.620000,0
1551.620000,1836.280000,224.040000,11.000000,328.358182,1775.660000,0.966988,60.620000,1
973.680000,1882.720000,137.470000,10.000000,299.387000,1111.150000,0.590183,771.570000,0
1202.660000,1432.820000,186.210000,20.000000,141.084500,1388.870000,0.969326,43.950000,1
1106.060000,1317.090000,183.530000,15.000000,173.778667,1289.590000,0.979121,27.500000,1
1069.170000,1546.150000,0.000000,16.000000,163.457500,1069.170000,0.691505,476.980000,0
981.760000,1392.610000,519.890000,11.000000,263.114545,1501.650000,1.078299,-109.040000,1
920.590000,1325.790000,256.950000,17.000000,147.254706,1177.540000,0.888180,148.250000,0
1084.640000,1292.210000,147.610000,11.000000,229.496364,1232.250000,0.953599,59.960000,1
1399.090000,1510.370000,207.890000,18.000000,173.186111,1606.980000,1.063964,-96.610000,1
1101.190000,1348.340000,160.830000,11.000000,237.305455,1262.020000,0.935981,86.320000,1
1565.100000,1726.420000,308.710000,17.000000,211.778235,1873.810000,1.085373,-147.390000,1
1186.730000,1482.560000,153.640000,16.000000,176.433125,1340.370000,0.904092,142.190000,1
987.310000,1399.230000,267.570000,21.000000,126.386190,1254.880000,0.896836,144.350000,0
1078.480000,1543.360000,281.960000,20.000000,145.190000,1360.440000,0.881479,182.920000,0
1158.020000,1333.060000,0.000000,16.000000,155.692500,1158.020000,0.868693,175.040000,0
1126.970000,1238.230000,33.010000,15.000000,159.880667,1159.980000,0.936805,78.250000,1
698.390000,1079.900000,93.810000,18.000000,104.005556,792.200000,0.733586,287.700000,0
1047.660000,1249.770000,46.490000,20.000000,117.196000,1094.150000,0.875481,155.620000,0
1072.160000,1371.560000,47.740000,12.000000,207.621667,1119.900000,0.816516,251.660000,0
1365.370000,1340.890000,30.040000,19.000000,144.015789,1395.410000,1.040660,-54.520000,1
1410.060000,1455.280000,47.720000,21.000000,138.717143,1457.780000,1.001718,-2.500000,1
1331.530000,1445.730000,41.620000,18.000000,156.604444,1373.150000,0.949797,72.580000,1
1202.190000,1334.300000,48.850000,17.000000,152.078824,1251.040000,0.937600,83.260000,1
1234.850000,1332.630000,51.570000,12.000000,218.254167,1286.420000,0.965324,46.210000,1
922.280000,1247.770000,48.350000,10.000000,221.840000,970.630000,0.777892,277.140000,0
1125.710000,1289.750000,43.090000,12.000000,204.879167,1168.800000,0.906222,120.950000,1
1296.300000,1746.720000,0.000000,9.000000,338.113333,1296.300000,0.742134,450.420000,0
1545.440000,2299.650000,402.220000,14.000000,303.379286,1947.660000,0.846938,351.990000,0
1183.240000,1830.130000,296.880000,20.000000,165.512500,1480.120000,0.808751,350.010000,0
1196.180000,1873.900000,195.650000,21.000000,155.510952,1391.830000,0.742745,482.070000,0
1210.130000,1944.350000,136.660000,18.000000,182.841111,1346.790000,0.692669,597.560000,0
1294.640000,1903.770000,247.600000,10.000000,344.601000,1542.240000,0.810098,361.530000,0
1369.130000,2123.770000,254.870000,11.000000,340.706364,1624.000000,0.764678,499.770000,0
938.730000,1831.450000,146.420000,11.000000,265.145455,1085.150000,0.592509,746.300000,0
1296.650000,1876.620000,171.130000,17.000000,196.729412,1467.780000,0.782140,408.840000,0
1434.330000,2144.390000,271.190000,20.000000,192.495500,1705.520000,0.795340,438.870000,0
1012.540000,1722.580000,240.840000,16.000000,185.997500,1253.380000,0.727618,469.200000,0
961.370000,2042.830000,225.230000,15.000000,215.295333,1186.600000,0.580861,856.230000,0
2116.440000,2901.790000,224.580000,17.000000,308.400588,2341.020000,0.806750,560.770000,0
1875.330000,2441.250000,205.500000,20.000000,226.104000,2080.830000,0.852363,360.420000,0
2369.960000,3285.140000,252.520000,12.000000,492.301667,2622.480000,0.798286,662.660000,0
2357.950000,2910.570000,233.900000,15.000000,366.828000,2591.850000,0.890496,318.720000,0
2804.020000,3025.660000,259.180000,14.000000,434.918571,3063.200000,1.012407,-37.540000,1
1599.370000,2513.250000,288.700000,14.000000,314.380000,1888.070000,0.751246,625.180000,0
2330.640000,2753.660000,201.120000,14.000000,377.530000,2531.760000,0.919416,221.900000,1
2694.580000,3046.150000,256.700000,13.000000,461.340769,2951.280000,0.968856,94.870000,1
2265.250000,3297.720000,278.360000,14.000000,417.237857,2543.610000,0.771324,754.110000,0
2538.360000,3242.640000,323.350000,20.000000,305.217500,2861.710000,0.882525,380.930000,0
2074.930000,2995.600000,304.760000,20.000000,268.764500,2379.690000,0.794395,615.910000,0
1962.930000,2881.390000,240.160000,20.000000,254.224000,2203.090000,0.764593,678.300000,0
1161.870000,1692.280000,154.420000,10.000000,300.857000,1316.290000,0.777820,375.990000,0
1240.230000,1482.130000,144.400000,17.000000,168.632941,1384.630000,0.934216,97.500000,1
1386.460000,1778.680000,171.760000,10.000000,333.690000,1558.220000,0.876054,220.460000,0
1246.020000,1881.270000,261.120000,10.000000,338.841000,1507.140000,0.801129,374.130000,0
1275.750000,1539.640000,113.840000,13.000000,225.325385,1389.590000,0.902542,150.050000,1
1307.820000,1600.280000,0.000000,12.000000,242.341667,1307.820000,0.817244,292.460000,0
1501.850000,1824.040000,310.200000,21.000000,173.147143,1812.050000,0.993427,11.990000,1
1146.160000,1584.990000,105.750000,17.000000,166.876471,1251.910000,0.789854,333.080000,0
1222.150000,1779.030000,192.590000,18.000000,177.431667,1414.740000,0.795231,364.290000,0
1541.200000,1687.350000,128.730000,15.000000,223.818667,1669.930000,0.989676,17.420000,1
1303.350000,1942.260000,178.010000,19.000000,180.190526,1481.360000,0.762699,460.900000,0
1323.710000,1754.890000,195.910000,21.000000,155.929048,1519.620000,0.865935,235.270000,0
557.260000,736.800000,62.940000,13.000000,104.384615,620.200000,0.841748,116.600000,0
617.570000,812.510000,97.180000,21.000000,72.726667,714.750000,0.879681,97.760000,0
685.860000,737.320000,79.630000,15.000000,100.187333,765.490000,1.038206,-28.170000,1
513.240000,667.820000,54.230000,15.000000,82.352667,567.470000,0.849735,100.350000,0
651.140000,729.610000,74.130000,13.000000,111.913846,725.270000,0.994052,4.340000,1
512.040000,711.040000,77.940000,13.000000,100.078462,589.980000,0.829742,121.060000,0
640.870000,731.490000,49.970000,16.000000,88.895625,690.840000,0.944428,40.650000,1
639.490000,732.800000,79.330000,10.000000,145.162000,718.820000,0.980922,13.980000,1
748.890000,794.060000,61.150000,19.000000,84.426316,810.040000,1.020124,-15.980000,1
684.950000,824.750000,51.550000,17.000000,91.838235,736.500000,0.892998,88.250000,0
749.070000,814.750000,69.010000,19.000000,85.938421,818.080000,1.004087,-3.330000,1
587.020000,699.820000,77.560000,21.000000,64.971429,664.580000,0.949644,35.240000,1
2349.360000,3441.030000,459.440000,13.000000,480.756154,2808.800000,0.816267,632.230000,0
1688.050000,2652.020000,317.710000,14.000000,332.698571,2005.760000,0.756314,646.260000,0
2318.830000,3519.870000,473.250000,17.000000,371.291176,2792.080000,0.793234,727.790000,0
2120.060000,3098.250000,217.380000,20.000000,271.784500,2337.440000,0.754439,760.810000,0
2107.630000,3017.470000,378.410000,17.000000,323.735882,2486.040000,0.823882,531.430000,0
2248.070000,3072.080000,419.090000,10.000000,573.924000,2667.160000,0.868194,404.920000,0
1693.930000,3019.910000,530.530000,12.000000,437.030833,2224.460000,0.736598,795.450000,0
1806.180000,3063.050000,385.860000,12.000000,437.924167,2192.040000,0.715640,871.010000,0
1846.910000,2904.410000,386.520000,15.000000,342.522667,2233.430000,0.768979,670.980000,0
1895.210000,3282.950000,445.290000,15.000000,374.896667,2340.500000,0.712926,942.450000,0
1605.700000,2545.040000,330.790000,14.000000,320.109286,1936.490000,0.760888,608.550000,0
1795.190000,2733.650000,383.670000,18.000000,272.917222,2178.860000,0.797052,554.790000,0
1768.300000,2428.020000,83.640000,13.000000,329.227692,1851.940000,0.762737,576.080000,0
1807.070000,2468.860000,68.680000,16.000000,271.538125,1875.750000,0.759764,593.110000,0
2282.700000,2434.700000,114.580000,16.000000,301.998750,2397.280000,0.984631,37.420000,1
1860.000000,2313.230000,110.110000,16.000000,267.708750,1970.110000,0.851671,343.120000,0
2204.690000,2498.710000,50.490000,14.000000,339.563571,2255.180000,0.902538,243.530000,1
2008.950000,2589.800000,99.540000,17.000000,276.370000,2108.490000,0.814152,481.310000,0
1755.350000,2398.220000,79.590000,18.000000,235.175556,1834.940000,0.765126,563.280000,0
2097.200000,2712.110000,95.530000,10.000000,490.484000,2192.730000,0.808496,519.380000,0
2187.730000,2439.520000,90.340000,20.000000,235.879500,2278.070000,0.933819,161.450000,1
1814.270000,2594.990000,57.040000,14.000000,319.021429,1871.310000,0.721124,723.680000,0
2036.020000,2417.930000,67.820000,15.000000,301.451333,2103.840000,0.870100,314.090000,0
2002.550000,2459.700000,64.470000,10.000000,452.672000,2067.020000,0.840355,392.680000,0
916.860000,1221.150000,94.810000,10.000000,223.282000,1011.670000,0.828457,209.480000,0
904.960000,1111.930000,0.000000,16.000000,126.055625,904.960000,0.813864,206.970000,0
806.720000,1232.470000,161.290000,22.000000,100.021818,968.010000,0.785423,264.460000,0
1096.790000,1199.940000,0.000000,11.000000,208.793636,1096.790000,0.914037,103.150000,1
836.030000,1014.760000,154.900000,18.000000,111.427222,990.930000,0.976517,23.830000,1
1024.020000,1225.000000,111.010000,11.000000,214.548182,1135.030000,0.926555,89.970000,1
1138.660000,1393.030000,98.680000,12.000000,219.197500,1237.340000,0.888236,155.690000,0
902.730000,1176.470000,76.870000,16.000000,134.754375,979.600000,0.832660,196.870000,0
1050.750000,1326.260000,59.520000,10.000000,243.653000,1110.270000,0.837144,215.990000,0
863.750000,1070.950000,82.460000,12.000000,168.096667,946.210000,0.883524,124.740000,0
1063.920000,1363.690000,93.300000,16.000000,157.556875,1157.220000,0.848595,206.470000,0
1021.130000,1110.270000,85.500000,18.000000,123.161111,1106.630000,0.996722,3.640000,1
1420.470000,1926.740000,0.000000,10.000000,334.721000,1420.470000,0.737240,506.270000,0
1366.560000,1566.350000,49.700000,16.000000,186.413125,1416.260000,0.904179,150.090000,1
1827.370000,1977.290000,0.000000,14.000000,271.761429,1827.370000,0.924179,149.920000,1
1570.300000,1803.720000,68.810000,18.000000,191.268333,1639.110000,0.908739,164.610000,1
1452.550000,1639.020000,37.760000,10.000000,312.933000,1490.310000,0.909269,148.710000,1
1859.120000,1933.850000,40.290000,10.000000,383.326000,1899.410000,0.982191,34.440000,1
1688.450000,1986.750000,34.160000,18.000000,206.075556,1722.610000,0.867049,264.140000,0
1791.880000,1934.890000,26.720000,12.000000,312.790833,1818.600000,0.939898,116.290000,1
1421.850000,1801.820000,33.060000,16.000000,203.545625,1454.910000,0.807467,346.910000,0
1503.020000,1645.140000,32.560000,21.000000,151.462857,1535.580000,0.933404,109.560000,1
1717.740000,1820.140000,35.650000,13.000000,274.886923,1753.390000,0.963327,66.750000,1
1640.150000,1826.450000,27.380000,14.000000,249.570000,1667.530000,0.912990,158.920000,1
851.900000,964.330000,24.930000,18.000000,102.286667,876.830000,0.909263,87.500000,1
1018.470000,1194.450000,21.460000,17.000000,131.434118,1039.930000,0.870635,154.520000,0
1062.100000,1223.340000,37.760000,15.000000,154.880000,1099.860000,0.899063,123.480000,0
1134.370000,1238.990000,36.670000,12.000000,200.835833,1171.040000,0.945157,67.950000,1
1188.800000,1407.170000,39.470000,12.000000,219.620000,1228.270000,0.872865,178.900000,0
855.300000,1110.600000,31.910000,18.000000,110.989444,887.210000,0.798856,223.390000,0
1196.190000,1342.930000,47.270000,13.000000,198.953077,1243.460000,0.925931,99.470000,1
1153.330000,1221.770000,47.170000,20.000000,121.113500,1200.500000,0.982591,21.270000,1
1058.020000,1125.250000,38.470000,19.000000,116.933684,1096.490000,0.974441,28.760000,1
945.020000,1035.360000,35.940000,19.000000,106.122105,980.960000,0.947458,54.400000,1
1139.340000,1248.730000,46.830000,11.000000,221.354545,1186.170000,0.949901,62.560000,1
1100.490000,1209.690000,40.470000,16.000000,146.915625,1140.960000,0.943184,68.730000,1
1430.490000,1968.650000,89.870000,14.000000,249.215000,1520.360000,0.772286,448.290000,0
1563.620000,1934.100000,116.170000,20.000000,180.694500,1679.790000,0.868512,254.310000,0
1856.650000,2195.270000,139.780000,20.000000,209.585000,1996.430000,0.909423,198.840000,1
2100.520000,2203.660000,105.220000,19.000000,232.073684,2205.740000,1.000944,-2.080000,1
1609.310000,2046.590000,90.830000,16.000000,234.170625,1700.140000,0.830718,346.450000,0
1687.900000,2003.830000,124.850000,21.000000,181.741905,1812.750000,0.904643,191.080000,1
1729.050000,2089.400000,90.380000,10.000000,390.883000,1819.430000,0.870791,269.970000,0
1519.770000,1756.920000,97.170000,13.000000,259.527692,1616.940000,0.920326,139.980000,1
1988.580000,2311.600000,108.820000,18.000000,244.944444,2097.400000,0.907337,214.200000,1
1624.600000,1968.990000,0.000000,16.000000,224.599375,1624.600000,0.825093,344.390000,0
2080.790000,2471.380000,193.920000,16.000000,296.630625,2274.710000,0.920421,196.670000,1
1210.800000,1803.320000,70.970000,12.000000,257.090833,1281.770000,0.710783,521.550000,0
1612.440000,2244.600000,0.000000,17.000000,226.884706,1612.440000,0.718364,632.160000,0
1817.860000,1982.640000,308.460000,14.000000,293.497143,2126.320000,1.072469,-143.680000,1
1995.160000,2092.540000,111.730000,11.000000,381.766364,2106.890000,1.006858,-14.350000,1
1496.000000,1724.890000,54.390000,21.000000,155.965714,1550.390000,0.898834,174.500000,0
1643.200000,1897.880000,101.280000,15.000000,242.824000,1744.480000,0.919173,153.400000,1
1910.890000,1999.660000,128.980000,21.000000,192.358571,2039.870000,1.020108,-40.210000,1
1696.040000,2054.900000,145.780000,17.000000,229.218824,1841.820000,0.896306,213.080000,0
1720.430000,1837.280000,84.490000,13.000000,280.169231,1804.920000,0.982387,32.360000,1
1640.390000,1816.160000,117.240000,12.000000,297.815833,1757.630000,0.967773,58.530000,1
1903.870000,2124.580000,145.220000,16.000000,260.854375,2049.090000,0.964468,75.490000,1
2013.540000,2173.300000,154.220000,17.000000,255.356471,2167.760000,0.997451,5.540000,1
1419.520000,1884.370000,59.410000,13.000000,258.715385,1478.930000,0.784841,405.440000,0
928.990000,1373.870000,157.070000,14.000000,175.709286,1086.060000,0.790511,287.810000,0
1019.090000,1279.380000,96.120000,10.000000,239.459000,1115.210000,0.871680,164.170000,0
1002.020000,1259.360000,122.970000,14.000000,170.310714,1124.990000,0.893303,134.370000,0
910.620000,1363.990000,143.490000,11.000000,219.827273,1054.110000,0.772814,309.880000,0
1203.790000,1379.870000,108.590000,17.000000,158.367647,1312.380000,0.951090,67.490000,1
1169.040000,1384.400000,131.090000,21.000000,127.834762,1300.130000,0.939129,84.270000,1
1037.350000,1385.930000,171.210000,18.000000,144.138333,1208.560000,0.872021,177.370000,0
1077.630000,1214.590000,125.920000,13.000000,186.010769,1203.550000,0.990911,11.040000,1
922.690000,1295.780000,127.900000,20.000000,117.318500,1050.590000,0.810778,245.190000,0
808.200000,1404.580000,188.260000,14.000000,171.502857,996.460000,0.709436,408.120000,0
801.600000,1246.880000,126.300000,11.000000,197.707273,927.900000,0.744177,318.980000,0
1094.270000,1381.160000,134.650000,17.000000,153.534118,1228.920000,0.889774,152.240000,0
1066.740000,1469.180000,210.120000,19.000000,144.528421,1276.860000,0.869097,192.320000,0
1101.390000,1622.900000,168.560000,10.000000,289.285000,1269.950000,0.782519,352.950000,0
989.220000,1324.110000,160.440000,20.000000,123.688500,1149.660000,0.868251,174.450000,0
974.220000,1339.480000,155.490000,19.000000,129.957368,1129.710000,0.843394,209.770000,0
1195.880000,1578.790000,0.000000,15.000000,184.978000,1195.880000,0.757466,382.910000,0
1153.370000,1592.610000,385.420000,20.000000,156.570000,1538.790000,0.966206,53.820000,1
1076.730000,1474.360000,189.660000,16.000000,171.296875,1266.390000,0.858942,207.970000,0
966.510000,1529.990000,183.150000,18.000000,148.869444,1149.660000,0.751417,380.330000,0
1278.490000,1573.500000,204.700000,10.000000,305.669000,1483.190000,0.942606,90.310000,1
1261.740000,1605.920000,173.390000,10.000000,304.105000,1435.130000,0.893650,170.790000,0
1149.540000,1329.230000,216.600000,14.000000,192.526429,1366.140000,1.027768,-36.910000,1
1180.920000,1510.050000,197.940000,12.000000,240.742500,1378.860000,0.913122,131.190000,1
1565.900000,2117.810000,0.000000,11.000000,334.882727,1565.900000,0.739396,551.910000,0
2035.060000,2290.150000,372.760000,22.000000,213.544091,2407.820000,1.051381,-117.670000,1
1624.230000,1987.820000,150.120000,11.000000,342.015455,1774.350000,0.892611,213.470000,0
1658.020000,1929.110000,203.210000,18.000000,210.574444,1861.230000,0.964813,67.880000,1
1487.480000,2001.270000,133.180000,21.000000,172.472857,1620.660000,0.809816,380.610000,0
1745.110000,2315.080000,144.460000,15.000000,280.310000,1889.570000,0.816201,425.510000,0
1372.160000,1821.680000,156.370000,13.000000,257.708462,1528.530000,0.839077,293.150000,0
1747.540000,2402.460000,215.830000,19.000000,229.780526,1963.370000,0.817233,439.090000,0
1507.920000,2141.850000,157.030000,15.000000,253.786667,1664.950000,0.777342,476.900000,0
2077.830000,2114.410000,215.380000,19.000000,231.980000,2293.210000,1.084563,-178.800000,1
1513.560000,2041.750000,172.140000,12.000000,310.620833,1685.700000,0.825615,356.050000,0
1778.540000,2397.480000,237.170000,21.000000,210.151905,2015.710000,0.840762,381.770000,0
1225.230000,1475.790000,143.640000,17.000000,167.332941,1368.870000,0.927551,106.920000,1
1058.080000,1341.640000,261.230000,11.000000,241.904545,1319.310000,0.983356,22.330000,1
752.150000,1172.100000,193.170000,14.000000,151.244286,945.320000,0.806518,226.780000,0
1296.960000,1667.230000,202.060000,18.000000,175.902778,1499.020000,0.899108,168.210000,0
1035.330000,1507.010000,108.920000,10.000000,265.126000,1144.250000,0.759285,362.760000,0
926.260000,1507.970000,224.840000,19.000000,139.951053,1151.100000,0.763344,356.870000,0
860.010000,1323.060000,226.830000,21.000000,114.757143,1086.840000,0.821459,236.220000,0
1011.000000,1337.570000,205.520000,20.000000,127.704500,1216.520000,0.909500,121.050000,1
1221.240000,1363.430000,186.810000,13.000000,213.190769,1408.050000,1.032726,-44.620000,1
1148.230000,1358.220000,244.560000,15.000000,183.400667,1392.790000,1.025452,-34.570000,1
997.170000,1336.580000,234.220000,15.000000,171.198000,1231.390000,0.921299,105.190000,1
1271.750000,1440.750000,227.020000,13.000000,226.116923,1498.770000,1.040271,-58.020000,1
1919.940000,2314.070000,298.080000,19.000000,238.531053,2218.020000,0.958493,96.050000,1
1748.890000,2145.170000,263.220000,11.000000,377.934545,2012.110000,0.937972,133.060000,1
1751.850000,2327.750000,325.200000,13.000000,338.830769,2077.050000,0.892299,250.700000,0
1886.750000,2312.270000,288.260000,17.000000,263.957647,2175.010000,0.940638,137.260000,1
1903.980000,2436.610000,323.310000,13.000000,358.761538,2227.290000,0.914094,209.320000,1
1847.020000,2336.410000,204.920000,11.000000,398.940909,2051.940000,0.878245,284.470000,0
1934.830000,2181.440000,246.120000,14.000000,311.599286,2180.950000,0.999775,0.490000,1
1976.230000,2350.790000,312.270000,12.000000,386.607500,2288.500000,0.973503,62.290000,1
1256.430000,1986.680000,268.370000,16.000000,219.467500,1524.800000,0.767512,461.880000,0
1833.890000,2231.320000,247.760000,17.000000,253.704118,2081.650000,0.932923,149.670000,1
2038.290000,2335.860000,246.250000,15.000000,308.026667,2284.540000,0.978030,51.320000,1
1619.170000,2204.270000,221.430000,11.000000,367.715455,1840.600000,0.835016,363.670000,0
1951.930000,2077.850000,331.040000,11.000000,396.438182,2282.970000,1.098717,-205.120000,1
1841.280000,2462.580000,436.840000,20.000000,237.035000,2278.120000,0.925095,184.460000,1
1522.240000,2080.440000,362.400000,17.000000,233.240000,1884.640000,0.905885,195.800000,1
1573.500000,2255.880000,370.350000,14.000000,299.980714,1943.850000,0.861681,312.030000,0
1752.320000,2354.420000,383.050000,17.000000,264.105294,2135.370000,0.906962,219.050000,1
1663.950000,2001.470000,279.200000,14.000000,281.758571,1943.150000,0.970861,58.320000,1
2066.500000,2359.220000,407.320000,13.000000,371.772308,2473.820000,1.048575,-114.600000,1
1725.020000,2180.220000,396.880000,12.000000,358.510000,2121.900000,0.973250,58.320000,1
1976.080000,2400.280000,340.900000,16.000000,294.828750,2316.980000,0.965296,83.300000,1
1992.540000,2374.180000,433.600000,19.000000,252.648421,2426.140000,1.021885,-51.960000,1
1951.520000,2362.350000,290.440000,11.000000,418.573636,2241.960000,0.949038,120.390000,1
2026.450000,2313.500000,316.610000,10.000000,465.656000,2343.060000,1.012777,-29.560000,1
1351.020000,1782.130000,194.450000,18.000000,184.866667,1545.470000,0.867204,236.660000,0
1440.470000,2017.170000,279.690000,12.000000,311.444167,1720.160000,0.852759,297.010000,0
1287.630000,1900.050000,253.620000,21.000000,163.871429,1541.250000,0.811163,358.800000,0
1292.330000,2051.970000,209.200000,10.000000,355.350000,1501.530000,0.731750,550.440000,0
1613.160000,1920.470000,251.030000,14.000000,270.332857,1864.190000,0.970695,56.280000,1
1747.020000,2182.610000,313.230000,12.000000,353.571667,2060.250000,0.943939,122.360000,1
1841.490000,2032.540000,227.430000,12.000000,341.788333,2068.920000,1.017899,-36.380000,1
1480.080000,1877.340000,216.180000,14.000000,255.257143,1696.260000,0.903544,181.080000,1
1658.160000,2060.210000,291.190000,18.000000,222.753333,1949.350000,0.946190,110.860000,1
1281.760000,1818.590000,0.000000,16.000000,193.771875,1281.760000,0.704810,536.830000,0
1395.170000,1712.640000,358.730000,13.000000,266.656923,1753.900000,1.024091,-41.260000,1
1330.560000,1894.500000,189.380000,16.000000,213.402500,1519.940000,0.802291,374.560000,0
463.200000,533.380000,0.000000,10.000000,99.658000,463.200000,0.868424,70.180000,0
556.810000,631.410000,0.000000,17.000000,69.895294,556.810000,0.881852,74.600000,0
593.260000,598.330000,0.000000,20.000000,59.579500,593.260000,0.991526,5.070000,1
717.460000,626.630000,0.000000,14.000000,96.006429,717.460000,1.144950,-90.830000,1
570.720000,563.210000,0.000000,13.000000,87.225385,570.720000,1.013334,-7.510000,1
581.510000,615.240000,0.000000,12.000000,99.729167,581.510000,0.945176,33.730000,1
580.410000,584.460000,0.000000,14.000000,83.205000,580.410000,0.993071,4.050000,1
548.250000,553.450000,0.000000,16.000000,68.856250,548.250000,0.990604,5.200000,1
564.700000,587.890000,0.000000,13.000000,88.660769,564.700000,0.960554,23.190000,1
621.460000,618.990000,0.000000,12.000000,103.370833,621.460000,1.003990,-2.470000,1
509.290000,562.680000,0.000000,17.000000,63.057059,509.290000,0.905115,53.390000,1
497.210000,605.980000,0.000000,12.000000,91.932500,497.210000,0.820506,108.770000,0
1733.370000,2181.320000,198.320000,10.000000,411.301000,1931.690000,0.885560,249.630000,0
1438.010000,1777.470000,151.260000,19.000000,177.196842,1589.270000,0.894119,188.200000,0
1457.240000,2038.190000,168.050000,11.000000,333.043636,1625.290000,0.797418,412.900000,0
1719.890000,1877.790000,150.010000,19.000000,197.246842,1869.900000,0.995798,7.890000,1
1479.490000,1831.310000,202.970000,12.000000,292.814167,1682.460000,0.918719,148.850000,1
1570.890000,1963.900000,160.170000,17.000000,217.350588,1731.060000,0.881440,232.840000,0
1732.620000,1968.340000,164.550000,12.000000,322.125833,1897.170000,0.963843,71.170000,1
1463.940000,1820.490000,80.740000,16.000000,210.323125,1544.680000,0.848497,275.810000,0
1416.250000,1737.600000,144.350000,17.000000,194.011765,1560.600000,0.898135,177.000000,0
1376.210000,1799.610000,126.210000,20.000000,165.101500,1502.420000,0.834859,297.190000,0
1367.700000,1747.960000,136.200000,19.000000,171.150526,1503.900000,0.860374,244.060000,0
1422.550000,1958.740000,170.100000,20.000000,177.569500,1592.650000,0.813099,366.090000,0
1046.620000,1622.290000,120.480000,17.000000,164.081765,1167.100000,0.719415,455.190000,0
1173.080000,1799.160000,151.080000,15.000000,208.221333,1324.160000,0.735988,475.000000,0
1220.310000,1930.410000,185.680000,17.000000,196.258824,1405.990000,0.728338,524.420000,0
1330.290000,1846.140000,199.050000,15.000000,225.032000,1529.340000,0.828399,316.800000,0
1442.100000,1786.570000,118.270000,13.000000,257.456923,1560.370000,0.873389,226.200000,0
995.700000,1543.360000,144.970000,19.000000,141.264737,1140.670000,0.739082,402.690000,0
1381.200000,1878.380000,168.810000,10.000000,342.839000,1550.010000,0.825184,328.370000,0
1267.530000,1905.910000,153.510000,21.000000,158.426190,1421.040000,0.745597,484.870000,0
1596.700000,2013.560000,106.420000,14.000000,265.477143,1703.120000,0.845825,310.440000,0
1276.350000,1900.670000,154.680000,14.000000,237.978571,1431.030000,0.752908,469.640000,0
1270.480000,1572.880000,133.520000,21.000000,141.756190,1404.000000,0.892630,168.880000,0
1254.670000,1840.670000,170.720000,21.000000,155.526667,1425.390000,0.774387,415.280000,0
1075.790000,1471.690000,0.000000,20.000000,127.374000,1075.790000,0.730990,395.900000,0
1046.760000,1432.090000,156.260000,16.000000,164.694375,1203.020000,0.840045,229.070000,0
965.790000,1432.420000,364.170000,21.000000,131.541905,1329.960000,0.928471,102.460000,1
1140.890000,1420.880000,135.950000,16.000000,168.607500,1276.840000,0.898626,144.040000,0
670.390000,1170.800000,174.390000,14.000000,143.970000,844.780000,0.721541,326.020000,0
1086.040000,1443.490000,202.570000,18.000000,151.783333,1288.610000,0.892704,154.880000,0
1110.740000,1582.280000,211.680000,14.000000,207.478571,1322.420000,0.835769,259.860000,0
1172.630000,1661.810000,136.610000,13.000000,228.542308,1309.240000,0.787840,352.570000,0
1211.460000,1665.410000,171.000000,12.000000,253.989167,1382.460000,0.830102,282.950000,0
1055.790000,1609.630000,0.000000,16.000000,166.588750,1055.790000,0.655921,553.840000,0
1037.400000,1437.400000,443.040000,19.000000,153.570526,1480.440000,1.029943,-43.040000,1
1145.980000,1744.100000,241.990000,18.000000,174.003889,1387.970000,0.795809,356.130000,0
991.970000,1389.860000,109.710000,17.000000,146.561176,1101.680000,0.792655,288.180000,0
1237.730000,1439.530000,125.430000,11.000000,254.790000,1363.160000,0.946948,76.370000,1
1078.170000,1352.760000,162.920000,10.000000,259.385000,1241.090000,0.917450,111.670000,1
1226.680000,1515.300000,108.490000,13.000000,219.266923,1335.170000,0.881126,180.130000,0
1149.190000,1468.570000,116.350000,11.000000,248.555455,1265.540000,0.861750,203.030000,0
1070.720000,1432.040000,120.850000,19.000000,138.084737,1191.570000,0.832079,240.470000,0
1279.130000,1547.920000,94.860000,21.000000,139.138571,1373.990000,0.887636,173.930000,0
1075.490000,1527.770000,136.780000,15.000000,182.669333,1212.270000,0.793490,315.500000,0
967.980000,1429.560000,148.500000,14.000000,181.860000,1116.480000,0.780996,313.080000,0
1185.090000,1534.540000,123.530000,11.000000,258.469091,1308.620000,0.852777,225.920000,0
1236.070000,1604.820000,109.380000,17.000000,173.545294,1345.450000,0.838381,259.370000,0
1087.480000,1495.590000,194.490000,16.000000,173.597500,1281.970000,0.857167,213.620000,0
1448.060000,1501.360000,14.870000,17.000000,174.370000,1462.930000,0.974403,38.430000,1
1207.090000,1305.010000,17.010000,16.000000,158.069375,1224.100000,0.938000,80.910000,1
1074.780000,1314.930000,0.000000,15.000000,159.314000,1074.780000,0.817367,240.150000,0
1516.950000,1421.690000,36.590000,13.000000,228.863846,1553.540000,1.092742,-131.850000,1
1646.130000,1476.080000,20.460000,19.000000,165.403684,1666.590000,1.129065,-190.510000,1
1100.310000,1224.340000,19.760000,12.000000,195.367500,1120.070000,0.914836,104.270000,1
917.260000,1247.120000,12.660000,17.000000,128.061176,929.920000,0.745654,317.200000,0
1239.910000,1346.110000,14.950000,15.000000,173.398000,1254.860000,0.932212,91.250000,1
1631.120000,1570.530000,21.420000,17.000000,189.592353,1652.540000,1.052218,-82.010000,1
1588.040000,1588.170000,18.870000,15.000000,213.005333,1606.910000,1.011800,-18.740000,1
1117.550000,1467.420000,13.420000,17.000000,152.846471,1130.970000,0.770720,336.450000,0
1256.150000,1219.890000,11.950000,15.000000,165.866000,1268.100000,1.039520,-48.210000,1
1880.980000,2744.650000,194.620000,19.000000,253.697368,2075.600000,0.756235,669.050000,0
1752.390000,2481.110000,316.000000,19.000000,239.447368,2068.390000,0.833655,412.720000,0
2140.090000,2690.180000,0.000000,20.000000,241.513500,2140.090000,0.795519,550.090000,0
1787.230000,2346.530000,759.280000,11.000000,444.821818,2546.510000,1.085224,-199.980000,1
1748.200000,2557.400000,328.060000,16.000000,289.603750,2076.260000,0.811864,481.140000,0
1688.670000,2500.340000,324.690000,20.000000,225.685000,2013.360000,0.805234,486.980000,0
1984.320000,2781.770000,446.360000,21.000000,248.211905,2430.680000,0.873789,351.090000,0
1580.740000,2334.980000,258.070000,10.000000,417.379000,1838.810000,0.787506,496.170000,0
1694.550000,2318.070000,378.750000,12.000000,365.947500,2073.300000,0.894408,244.770000,0
1927.050000,2563.880000,245.250000,19.000000,249.272632,2172.300000,0.847271,391.580000,0
1684.520000,2576.010000,288.610000,21.000000,216.625714,1973.130000,0.765964,602.880000,0
1498.410000,2590.710000,366.400000,16.000000,278.470000,1864.810000,0.719807,725.900000,0
1393.080000,1628.240000,104.400000,17.000000,183.865882,1497.480000,0.919692,130.760000,1
1643.610000,1640.060000,78.320000,13.000000,258.614615,1721.930000,1.049919,-81.870000,1
1283.220000,1464.320000,76.810000,19.000000,148.650000,1360.030000,0.928779,104.290000,1
1200.580000,1430.800000,58.810000,12.000000,224.182500,1259.390000,0.880200,171.410000,0
1599.820000,1815.250000,69.600000,21.000000,165.936667,1669.420000,0.919664,145.830000,1
1391.200000,1709.500000,152.830000,15.000000,216.902000,1544.030000,0.903206,165.470000,1
1460.660000,1753.430000,92.100000,21.000000,157.437619,1552.760000,0.885556,200.670000,0
1246.840000,1609.090000,96.090000,18.000000,164.001111,1342.930000,0.834590,266.160000,0
1419.410000,1591.060000,95.490000,16.000000,194.122500,1514.900000,0.952133,76.160000,1
1467.490000,1729.510000,154.620000,20.000000,167.581000,1622.110000,0.937901,107.400000,1
1411.960000,1804.490000,69.990000,12.000000,273.870000,1481.950000,0.821257,322.540000,0
1348.570000,1870.840000,130.400000,14.000000,239.272143,1478.970000,0.790538,391.870000,0
1159.250000,1736.340000,0.000000,17.000000,170.328824,1159.250000,0.667640,577.090000,0
1050.820000,1337.020000,0.000000,20.000000,119.392000,1050.820000,0.785942,286.200000,0
1582.420000,1800.180000,0.000000,19.000000,178.031579,1582.420000,0.879034,217.760000,0
1277.380000,1615.100000,0.000000,18.000000,160.693333,1277.380000,0.790898,337.720000,0
1372.100000,1751.470000,0.000000,20.000000,156.178500,1372.100000,0.783399,379.370000,0
1335.750000,1495.070000,0.000000,18.000000,157.267778,1335.750000,0.893436,159.320000,0
1360.660000,1603.290000,0.000000,13.000000,227.996154,1360.660000,0.848667,242.630000,0
1312.190000,1531.410000,0.000000,12.000000,236.966667,1312.190000,0.856851,219.220000,0
1315.680000,1550.620000,0.000000,10.000000,286.630000,1315.680000,0.848486,234.940000,0
1442.770000,1599.050000,0.000000,14.000000,217.272857,1442.770000,0.902267,156.280000,1
1324.560000,1617.720000,0.000000,16.000000,183.892500,1324.560000,0.818782,293.160000,0
1218.420000,1551.380000,0.000000,10.000000,276.980000,1218.420000,0.785378,332.960000,0
1227.430000,1893.310000,290.790000,11.000000,310.139091,1518.220000,0.801887,375.090000,0
1311.730000,1665.910000,225.560000,20.000000,160.160000,1537.290000,0.922793,128.620000,1
1271.050000,1696.280000,0.000000,17.000000,174.548824,1271.050000,0.749316,425.230000,0
1358.310000,1866.270000,556.410000,11.000000,343.726364,1914.720000,1.025961,-48.450000,1
1226.850000,1759.130000,182.010000,17.000000,186.352353,1408.860000,0.800885,350.270000,0
1346.530000,1708.320000,331.060000,19.000000,178.205789,1677.590000,0.982012,30.730000,1
1635.550000,2032.330000,343.820000,10.000000,401.170000,1979.370000,0.973941,52.960000,1
1065.740000,1562.330000,237.470000,18.000000,159.196667,1303.210000,0.834145,259.120000,0
1273.950000,1767.030000,343.640000,20.000000,169.231000,1617.590000,0.915429,149.440000,1
1310.120000,1680.800000,198.850000,19.000000,167.882632,1508.970000,0.897769,171.830000,0
1551.940000,1800.350000,245.280000,11.000000,327.051818,1797.220000,0.998261,3.130000,1
934.330000,1515.550000,261.660000,11.000000,246.503636,1195.990000,0.789146,319.560000,0
2271.960000,2605.820000,484.060000,15.000000,357.456000,2756.020000,1.057640,-150.200000,1
1723.530000,2356.320000,277.480000,17.000000,256.313529,2001.010000,0.849210,355.310000,0
1406.190000,2081.700000,233.140000,16.000000,232.564375,1639.330000,0.787496,442.370000,0
2033.320000,2606.010000,202.210000,13.000000,372.426154,2235.530000,0.857836,370.480000,0
1904.470000,2582.620000,261.650000,19.000000,249.933684,2166.120000,0.838730,416.500000,0
1678.410000,2413.540000,259.820000,16.000000,271.985625,1938.230000,0.803065,475.310000,0
1475.820000,1983.640000,326.580000,18.000000,210.335556,1802.400000,0.908633,181.240000,1
1973.360000,2524.380000,299.970000,11.000000,436.155455,2273.330000,0.900550,251.050000,1
1578.390000,2461.750000,443.150000,20.000000,224.164500,2021.540000,0.821180,440.210000,0
1919.300000,2461.730000,358.430000,17.000000,278.791765,2277.730000,0.925256,184.000000,1
2064.580000,2704.380000,281.890000,16.000000,315.678125,2346.470000,0.867655,357.910000,0
1918.560000,2492.780000,281.920000,19.000000,247.013684,2200.480000,0.882741,292.300000,0
1879.950000,2458.590000,0.000000,14.000000,309.895714,1879.950000,0.764646,578.640000,0
1789.460000,2614.380000,381.110000,18.000000,265.830556,2170.570000,0.830243,443.810000,0
1844.860000,2645.040000,283.280000,11.000000,433.925455,2128.140000,0.804578,516.900000,0
1629.480000,2427.960000,243.350000,15.000000,286.719333,1872.830000,0.771359,555.130000,0
1900.770000,2696.870000,133.230000,10.000000,473.087000,2034.000000,0.754208,662.870000,0
1514.210000,2505.270000,120.180000,18.000000,229.981111,1634.390000,0.652381,870.880000,0
2116.550000,2600.610000,221.720000,12.000000,411.573333,2338.270000,0.899124,262.340000,0
2038.710000,2627.190000,297.510000,14.000000,354.529286,2336.220000,0.889247,290.970000,0
2249.170000,2827.440000,292.660000,18.000000,298.292778,2541.830000,0.898986,285.610000,0
1743.770000,2673.530000,270.240000,14.000000,334.824286,2014.010000,0.753315,659.520000,0
2227.220000,2874.840000,270.260000,16.000000,335.770000,2497.480000,0.868737,377.360000,0
1838.380000,2797.130000,263.490000,11.000000,445.363636,2101.870000,0.751438,695.260000,0
1050.050000,1606.600000,131.730000,18.000000,154.910000,1181.780000,0.735578,424.820000,0
860.180000,1304.410000,92.610000,14.000000,161.228571,952.790000,0.730438,351.620000,0
966.580000,1356.310000,0.000000,12.000000,193.574167,966.580000,0.712654,389.730000,0
1093.260000,1466.970000,254.290000,14.000000,201.037143,1347.550000,0.918594,119.420000,1
1090.820000,1436.800000,130.430000,20.000000,132.902500,1221.250000,0.849979,215.550000,0
877.190000,1294.020000,113.790000,17.000000,134.411765,990.980000,0.765815,303.040000,0
1248.080000,1381.070000,115.920000,11.000000,249.551818,1364.000000,0.987640,17.070000,1
779.220000,1226.770000,65.510000,16.000000,129.468750,844.730000,0.688581,382.040000,0
902.670000,1374.910000,105.030000,13.000000,183.277692,1007.700000,0.732921,367.210000,0
1015.900000,1452.350000,84.320000,18.000000,141.809444,1100.220000,0.757545,352.130000,0
867.650000,1255.140000,86.500000,15.000000,147.286000,954.150000,0.760194,300.990000,0
906.750000,1312.930000,112.310000,19.000000,122.736316,1019.060000,0.776172,293.870000,0
1014.730000,1547.370000,252.380000,10.000000,281.448000,1267.110000,0.818880,280.260000,0
1111.970000,1599.830000,0.000000,11.000000,246.527273,1111.970000,0.695055,487.860000,0
1195.690000,1456.190000,219.970000,10.000000,287.185000,1415.660000,0.972167,40.530000,1
1171.410000,1782.510000,411.230000,16.000000,210.321875,1582.640000,0.887872,199.870000,0
867.130000,1413.840000,140.800000,19.000000,127.461579,1007.930000,0.712902,405.910000,0
1101.910000,1454.860000,212.420000,12.000000,230.765833,1314.330000,0.903407,140.530000,1
1200.290000,1642.990000,289.170000,20.000000,156.622500,1489.460000,0.906555,153.530000,1
1109.550000,1501.320000,243.270000,19.000000,150.217895,1352.820000,0.901087,148.500000,1
1119.170000,1473.230000,195.490000,17.000000,163.993529,1314.660000,0.892366,158.570000,0
1122.510000,1566.960000,278.440000,21.000000,141.329048,1400.950000,0.894056,166.010000,0
1337.990000,1548.870000,269.000000,18.000000,175.325556,1606.990000,1.037524,-58.120000,1
959.620000,1333.740000,268.680000,21.000000,122.001905,1228.300000,0.920944,105.440000,1
1720.290000,1840.130000,56.330000,20.000000,180.837500,1776.620000,0.965486,63.510000,1
1641.230000,1890.410000,59.340000,12.000000,299.248333,1700.570000,0.899577,189.840000,0
1258.760000,1674.040000,33.150000,20.000000,148.297500,1291.910000,0.771732,382.130000,0
1584.360000,1759.170000,30.050000,14.000000,240.970000,1614.410000,0.917711,144.760000,1
1861.240000,2147.380000,50.780000,14.000000,289.957143,1912.020000,0.890397,235.360000,0
1396.420000,1841.200000,38.880000,16.000000,204.781250,1435.300000,0.779546,405.900000,0
1564.870000,1861.350000,35.160000,19.000000,182.177895,1600.030000,0.859607,261.320000,0
1656.360000,1895.310000,48.890000,19.000000,189.503158,1705.250000,0.899721,190.060000,0
1369.650000,1803.440000,52.370000,20.000000,161.273000,1422.020000,0.788504,381.420000,0
1401.980000,1869.960000,56.240000,15.000000,221.878667,1458.220000,0.779813,411.740000,0
1072.690000,1792.650000,53.530000,13.000000,224.528462,1126.220000,0.628243,666.430000,0
1205.040000,1912.940000,53.130000,10.000000,317.111000,1258.170000,0.657715,654.770000,0
1297.590000,1636.380000,87.290000,19.000000,159.013684,1384.880000,0.846307,251.500000,0
1407.360000,1551.400000,49.990000,15.000000,200.583333,1457.350000,0.939377,94.050000,1
1370.250000,1547.030000,82.510000,14.000000,214.270714,1452.760000,0.939064,94.270000,1
955.150000,1212.770000,65.280000,19.000000,117.536842,1020.430000,0.841404,192.340000,0
1182.000000,1573.800000,82.110000,15.000000,189.194000,1264.110000,0.803222,309.690000,0
1509.620000,1635.790000,101.690000,12.000000,270.591667,1611.310000,0.985035,24.480000,1
1560.390000,1784.300000,100.390000,16.000000,215.317500,1660.780000,0.930774,123.520000,1
1327.710000,1618.490000,88.960000,19.000000,159.745263,1416.670000,0.875304,201.820000,0
1023.230000,1445.730000,94.910000,12.000000,213.655833,1118.140000,0.773409,327.590000,0
1143.760000,1489.590000,82.900000,13.000000,208.942308,1226.660000,0.823488,262.930000,0
1147.830000,1497.400000,85.200000,19.000000,143.706842,1233.030000,0.823447,264.370000,0
1181.630000,1475.920000,52.900000,10.000000,271.045000,1234.530000,0.836448,241.390000,0
1861.300000,2622.480000,162.040000,15.000000,309.721333,2023.340000,0.771537,599.140000,0
1921.210000,2651.630000,215.950000,20.000000,239.439500,2137.160000,0.805980,514.470000,0
2045.310000,2530.330000,174.540000,14.000000,339.298571,2219.850000,0.877297,310.480000,0
2175.450000,2579.010000,258.360000,20.000000,250.641000,2433.810000,0.943699,145.200000,1
2210.010000,2380.710000,239.530000,10.000000,483.025000,2449.540000,1.028912,-68.830000,1
2295.560000,2698.910000,239.820000,13.000000,402.637692,2535.380000,0.939409,163.530000,1
1797.560000,2617.700000,190.320000,20.000000,230.279000,1987.880000,0.759399,629.820000,0
2243.780000,2685.740000,217.610000,16.000000,321.695625,2461.390000,0.916466,224.350000,1
1575.950000,2233.690000,237.780000,17.000000,238.083529,1813.730000,0.811988,419.960000,0
1937.060000,2528.660000,167.490000,15.000000,308.880667,2104.550000,0.832279,424.110000,0
2466.080000,2599.810000,171.150000,14.000000,374.074286,2637.230000,1.014393,-37.420000,1
1817.410000,2673.970000,218.260000,13.000000,362.280000,2035.670000,0.761291,638.300000,0
1308.040000,1662.850000,144.980000,16.000000,194.741875,1453.020000,0.873813,209.830000,0
1351.720000,1503.560000,107.690000,19.000000,155.945789,1459.410000,0.970636,44.150000,1
1361.440000,1668.640000,129.820000,21.000000,150.471429,1491.260000,0.893698,177.380000,0
1217.280000,1620.060000,142.880000,14.000000,212.872857,1360.160000,0.839574,259.900000,0
943.740000,1276.570000,119.130000,11.000000,212.676364,1062.870000,0.832598,213.700000,0
1210.590000,1437.750000,99.730000,21.000000,130.860476,1310.320000,0.911368,127.430000,1
1093.170000,1487.440000,119.090000,20.000000,134.985000,1212.260000,0.814998,275.180000,0
1225.060000,1503.380000,111.930000,11.000000,258.215455,1336.990000,0.889323,166.390000,0
1183.380000,1602.200000,123.910000,16.000000,181.843125,1307.290000,0.815934,294.910000,0
1276.290000,1508.400000,109.290000,12.000000,241.165000,1385.580000,0.918576,122.820000,1
1443.730000,1544.040000,127.670000,15.000000,207.696000,1571.400000,1.017720,-27.360000,1
1323.300000,1468.630000,128.830000,14.000000,208.625714,1452.130000,0.988765,16.500000,1
1596.710000,2051.240000,335.300000,19.000000,209.644737,1932.010000,0.941874,119.230000,1
1498.360000,2186.920000,394.860000,11.000000,370.921818,1893.220000,0.865702,293.700000,0
1888.870000,2336.860000,264.400000,10.000000,449.013000,2153.270000,0.921437,183.590000,1
1671.980000,2383.660000,342.410000,21.000000,209.430952,2014.390000,0.845083,369.270000,0
1429.630000,2069.360000,0.000000,19.000000,184.157368,1429.630000,0.690856,639.730000,0
1734.160000,2209.690000,584.840000,22.000000,205.849545,2319.000000,1.049468,-109.310000,1
1348.720000,2056.880000,205.690000,21.000000,171.966190,1554.410000,0.755713,502.470000,0
1504.420000,1996.990000,235.850000,19.000000,196.697895,1740.270000,0.871447,256.720000,0
1413.440000,2096.660000,269.450000,13.000000,290.734615,1682.890000,0.802653,413.770000,0
1628.280000,2286.730000,275.500000,14.000000,299.322143,1903.780000,0.832534,382.950000,0
1802.340000,2110.020000,264.630000,20.000000,208.849500,2066.970000,0.979597,43.050000,1
1821.040000,2354.290000,283.480000,13.000000,342.985385,2104.520000,0.893909,249.770000,0
1671.920000,2538.930000,237.070000,21.000000,211.805714,1908.990000,0.751888,629.940000,0
1377.220000,2097.930000,272.680000,10.000000,374.783000,1649.900000,0.786442,448.030000,0
1067.000000,2205.380000,144.010000,10.000000,341.639000,1211.010000,0.549116,994.370000,0
1432.820000,2145.180000,193.180000,21.000000,179.580000,1626.000000,0.757978,519.180000,0
1534.110000,2064.150000,240.700000,19.000000,202.050526,1774.810000,0.859826,289.340000,0
1838.560000,2372.230000,234.670000,12.000000,370.455000,2073.230000,0.873958,299.000000,0
1205.970000,2085.350000,256.440000,13.000000,272.904615,1462.410000,0.701278,622.940000,0
1455.500000,1984.860000,246.510000,19.000000,194.045789,1702.010000,0.857496,282.850000,0
1796.690000,2280.170000,334.120000,10.000000,441.098000,2130.810000,0.934496,149.360000,1
1563.180000,2083.630000,282.520000,17.000000,231.137059,1845.700000,0.885810,237.930000,0
1770.450000,2360.600000,255.100000,14.000000,313.296429,2025.550000,0.858066,335.050000,0
1496.040000,1978.010000,246.870000,16.000000,232.557500,1742.910000,0.881143,235.100000,0
711.520000,917.430000,56.820000,12.000000,140.480833,768.340000,0.837492,149.090000,0
673.930000,788.290000,0.000000,18.000000,81.234444,673.930000,0.854926,114.360000,0
591.760000,712.730000,53.170000,10.000000,135.766000,644.930000,0.904873,67.800000,1
761.180000,852.130000,58.510000,22.000000,75.991818,819.690000,0.961931,32.440000,1
681.060000,824.930000,48.460000,16.000000,97.153125,729.520000,0.884342,95.410000,0
647.700000,799.060000,38.950000,13.000000,114.285385,686.650000,0.859322,112.410000,0
720.030000,911.750000,71.070000,20.000000,85.142500,791.100000,0.867672,120.650000,0
642.720000,745.820000,46.790000,19.000000,75.543684,689.510000,0.924499,56.310000,1
564.640000,719.030000,46.300000,14.000000,94.997857,610.940000,0.849672,108.090000,0
538.700000,810.650000,0.000000,11.000000,122.668182,538.700000,0.664528,271.950000,0
676.960000,817.330000,87.440000,11.000000,143.793636,764.400000,0.935240,52.930000,1
565.140000,805.660000,34.160000,18.000000,78.053333,599.300000,0.743862,206.360000,0
1333.020000,1589.570000,95.080000,16.000000,188.604375,1428.100000,0.898419,161.470000,0
1054.130000,1525.120000,106.160000,16.000000,167.838125,1160.290000,0.760786,364.830000,0
1521.270000,2021.610000,99.380000,13.000000,280.173846,1620.650000,0.801663,400.960000,0
1409.720000,1822.190000,135.780000,15.000000,224.512667,1545.500000,0.848155,276.690000,0
1152.490000,1597.380000,107.470000,16.000000,178.583750,1259.960000,0.788767,337.420000,0
937.910000,1394.120000,61.210000,12.000000,199.436667,999.120000,0.716667,395.000000,0
1263.160000,1683.830000,104.710000,13.000000,234.746154,1367.870000,0.812356,315.960000,0
1195.180000,1652.460000,78.390000,21.000000,139.334762,1273.570000,0.770712,378.890000,0
1329.680000,1872.660000,96.370000,17.000000,194.041765,1426.050000,0.761510,446.610000,0
1327.850000,1694.250000,85.460000,11.000000,282.505455,1413.310000,0.834180,280.940000,0
1233.590000,1641.800000,118.730000,10.000000,299.412000,1352.320000,0.823681,289.480000,0
983.690000,1494.850000,96.080000,12.000000,214.551667,1079.770000,0.722327,415.080000,0
856.530000,1243.980000,153.640000,11.000000,204.922727,1010.170000,0.812047,233.810000,0
859.890000,1141.820000,138.600000,15.000000,142.687333,998.490000,0.874472,143.330000,0
864.230000,1147.160000,109.590000,17.000000,124.763529,973.820000,0.848896,173.340000,0
728.280000,1007.640000,100.340000,11.000000,166.932727,828.620000,0.822337,179.020000,0
777.300000,1105.250000,161.740000,16.000000,127.768125,939.040000,0.849618,166.210000,0
739.530000,922.970000,104.560000,14.000000,126.218571,844.090000,0.914537,78.880000,1
642.930000,1007.290000,161.580000,18.000000,100.655556,804.510000,0.798688,202.780000,0
790.770000,1061.950000,101.120000,14.000000,139.560000,891.890000,0.839861,170.060000,0
763.260000,982.590000,98.690000,17.000000,108.502353,861.950000,0.877222,120.640000,0
745.260000,1110.700000,142.450000,18.000000,111.022778,887.710000,0.799235,222.990000,0
885.630000,1186.530000,134.770000,12.000000,183.910833,1020.400000,0.859987,166.130000,0
843.370000,1088.140000,155.230000,21.000000,99.368571,998.600000,0.917713,89.540000,1
