% Dataset generado por EcoFinance para validacion en Weka Explorer
% Abrir este archivo en Weka Explorer > Preprocess
% Class attribute: target_high_risk {0,1}

@relation ecofinance_risk_training

@attribute expense numeric
@attribute income numeric
@attribute investment numeric
@attribute tx_count numeric
@attribute avg_amount numeric
@attribute outflow numeric
@attribute spend_income_ratio numeric
@attribute net_balance numeric
@attribute target_high_risk {0,1}

@data
1465.480000,1710.120000,58.940000,14.000000,231.038571,1524.420000,0.891411,185.700000,0
1139.990000,1790.610000,76.820000,16.000000,187.963750,1216.810000,0.679551,573.800000,0
1238.480000,1714.120000,82.930000,19.000000,159.764737,1321.410000,0.770897,392.710000,0
1317.260000,1681.040000,62.740000,14.000000,218.645714,1380.000000,0.820920,301.040000,0
1211.090000,1750.820000,71.080000,15.000000,202.199333,1282.170000,0.732325,468.650000,0
371366.600000,1151699.130000,11400060.970000,25.000000,516925.068000,11771427.570000,10.220923,-10619728.440000,1
2271.930000,2664.840000,406.520000,11.000000,485.753636,2678.450000,1.005107,-13.610000,1
1977.570000,2290.000000,526.930000,13.000000,368.807692,2504.500000,1.093668,-214.500000,1
1979.640000,2743.430000,463.030000,21.000000,246.957143,2442.670000,0.890371,300.760000,0
1722.770000,2883.770000,384.490000,13.000000,383.925385,2107.260000,0.730731,776.510000,0
2040.980000,2468.660000,556.960000,21.000000,241.266667,2597.940000,1.052368,-129.280000,1
1252136.410000,2675.850000,250437.500000,19.000000,79223.671579,1502573.910000,561.531442,-1499898.060000,1
900.560000,1279.130000,109.920000,20.000000,114.480500,1010.480000,0.789974,268.650000,0
951.890000,1198.600000,123.720000,21.000000,108.295714,1075.610000,0.897389,122.990000,0
653.760000,1058.630000,83.920000,14.000000,128.307857,737.680000,0.696825,320.950000,0
680.270000,974.970000,107.370000,15.000000,117.507333,787.640000,0.807861,187.330000,0
820.760000,1244.980000,118.900000,19.000000,114.981053,939.660000,0.754759,305.320000,0
960.840000,1157.240000,142.320000,15.000000,150.693333,1103.160000,0.953268,54.080000,1
1312.700000,2029.180000,0.000000,19.000000,175.888421,1312.700000,0.646912,716.480000,0
1686.640000,2236.010000,468.400000,22.000000,199.593182,2155.040000,0.963788,80.970000,1
1395.510000,1683.710000,153.790000,14.000000,230.929286,1549.300000,0.920170,134.410000,1
1619.350000,1814.240000,203.580000,10.000000,363.717000,1822.930000,1.004790,-8.690000,1
1438.290000,1994.580000,203.060000,17.000000,213.878235,1641.350000,0.822905,353.230000,0
1654.920000,2007.840000,0.000000,14.000000,261.625714,1654.920000,0.824229,352.920000,0
0.000000,0.000000,247.880000,1.000000,247.880000,247.880000,0.000000,-247.880000,1
1426.510000,1757.760000,166.410000,11.000000,304.607273,1592.920000,0.906222,164.840000,1
1731.680000,1975.490000,256.220000,21.000000,188.732857,1987.900000,1.006282,-12.410000,1
1342.610000,1772.860000,156.230000,10.000000,327.170000,1498.840000,0.845436,274.020000,0
1384.720000,1813.240000,200.320000,20.000000,169.914000,1585.040000,0.874148,228.200000,0
1301.580000,1999.210000,146.010000,14.000000,246.200000,1447.590000,0.724081,551.620000,0
1354.530000,1626.430000,114.990000,16.000000,193.496875,1469.520000,0.903525,156.910000,1
1193.410000,1782.270000,152.460000,21.000000,148.959048,1345.870000,0.755144,436.400000,0
1438.120000,1849.080000,231.930000,20.000000,175.956500,1670.050000,0.903179,179.030000,1
1531.160000,1670.120000,242.990000,12.000000,287.022500,1774.150000,1.062289,-104.030000,1
1773.840000,2025.510000,274.900000,17.000000,239.661765,2048.740000,1.011469,-23.230000,1
1318.960000,2036.380000,258.560000,14.000000,258.135714,1577.520000,0.774669,458.860000,0
1644.430000,2014.870000,164.470000,11.000000,347.615455,1808.900000,0.897775,205.970000,0
339.270000,524.400000,34.330000,20.000000,44.900000,373.600000,0.712433,150.800000,0
451.950000,547.580000,47.440000,15.000000,69.798000,499.390000,0.911995,48.190000,1
283.830000,472.330000,39.860000,10.000000,79.602000,323.690000,0.685305,148.640000,0
442.700000,555.660000,54.950000,14.000000,75.236429,497.650000,0.895602,58.010000,0
345.360000,543.170000,27.760000,12.000000,76.357500,373.120000,0.686930,170.050000,0
466.020000,576.680000,29.830000,11.000000,97.502727,495.850000,0.859836,80.830000,0
750.480000,957.190000,0.000000,14.000000,121.976429,750.480000,0.784045,206.710000,0
610.920000,741.260000,156.290000,19.000000,79.393158,767.210000,1.035008,-25.950000,1
717.960000,925.740000,108.310000,21.000000,83.429048,826.270000,0.892551,99.470000,0
493.490000,869.370000,104.390000,21.000000,69.869048,597.880000,0.687716,271.490000,0
787.940000,893.640000,75.920000,10.000000,175.750000,863.860000,0.966676,29.780000,1
737.390000,893.780000,125.580000,14.000000,125.482143,862.970000,0.965528,30.810000,1
676.010000,952.260000,199.020000,15.000000,121.819333,875.030000,0.918898,77.230000,1
529.070000,811.440000,121.750000,14.000000,104.447143,650.820000,0.802056,160.620000,0
594.480000,846.750000,133.340000,14.000000,112.469286,727.820000,0.859545,118.930000,0
613.300000,880.470000,186.240000,16.000000,105.000625,799.540000,0.908083,80.930000,1
613.090000,941.240000,159.360000,17.000000,100.805294,772.450000,0.820673,168.790000,0
578.510000,857.520000,91.070000,17.000000,89.829412,669.580000,0.780833,187.940000,0
2442.650000,2397.110000,0.000000,12.000000,403.313333,2442.650000,1.018998,-45.540000,1
2278.620000,2396.890000,548.570000,21.000000,248.765714,2827.190000,1.179524,-430.300000,1
1887.190000,2003.110000,194.640000,19.000000,214.996842,2081.830000,1.039299,-78.720000,1
2158.410000,2434.940000,211.440000,14.000000,343.199286,2369.850000,0.973268,65.090000,1
1804.890000,2130.430000,197.470000,21.000000,196.799524,2002.360000,0.939885,128.070000,1
2600.540000,2584.980000,257.320000,19.000000,286.465263,2857.860000,1.105564,-272.880000,1
466.960000,605.450000,69.260000,12.000000,95.139167,536.220000,0.885655,69.230000,0
500.950000,778.050000,86.040000,16.000000,85.315000,586.990000,0.754437,191.060000,0
551.410000,772.520000,100.300000,10.000000,142.423000,651.710000,0.843616,120.810000,0
430.890000,654.110000,0.000000,18.000000,60.277778,430.890000,0.658742,223.220000,0
428.880000,775.120000,150.420000,12.000000,112.868333,579.300000,0.747368,195.820000,0
577.590000,812.220000,63.460000,18.000000,80.737222,641.050000,0.789257,171.170000,0
2175.150000,2297.680000,278.230000,16.000000,296.941250,2453.380000,1.067764,-155.700000,1
1586.980000,2336.320000,244.430000,17.000000,245.160588,1831.410000,0.783887,504.910000,0
1487.720000,2199.870000,240.590000,11.000000,357.107273,1728.310000,0.785642,471.560000,0
1674.220000,2062.500000,214.330000,21.000000,188.145238,1888.550000,0.915661,173.950000,1
1295.380000,1769.230000,145.220000,12.000000,267.485833,1440.600000,0.814253,328.630000,0
1868.380000,2116.940000,285.620000,19.000000,224.786316,2154.000000,1.017506,-37.060000,1
1520.570000,1810.020000,81.530000,21.000000,162.481905,1602.100000,0.885128,207.920000,0
1497.420000,1810.760000,90.460000,17.000000,199.920000,1587.880000,0.876914,222.880000,0
1650.200000,1858.240000,84.690000,13.000000,276.394615,1734.890000,0.933620,123.350000,1
1590.140000,1934.230000,62.030000,16.000000,224.150000,1652.170000,0.854175,282.060000,0
1763.580000,1923.640000,75.720000,11.000000,342.085455,1839.300000,0.956156,84.340000,1
1284.220000,1929.050000,112.880000,18.000000,184.786111,1397.100000,0.724243,531.950000,0
1876.870000,2587.290000,348.840000,21.000000,229.190476,2225.710000,0.860248,361.580000,0
1776.990000,2368.950000,287.830000,20.000000,221.688500,2064.820000,0.871618,304.130000,0
1899.920000,2144.960000,243.690000,16.000000,268.035625,2143.610000,0.999371,1.350000,1
2061.570000,2551.260000,193.180000,10.000000,480.601000,2254.750000,0.883779,296.510000,0
2373.680000,2783.270000,342.160000,21.000000,261.862381,2715.840000,0.975773,67.430000,1
1757.400000,2410.090000,269.060000,11.000000,403.322727,2026.460000,0.840823,383.630000,0
2130.370000,2217.320000,305.310000,14.000000,332.357143,2435.680000,1.098479,-218.360000,1
1906.080000,2367.920000,262.020000,10.000000,453.602000,2168.100000,0.915614,199.820000,1
1970.770000,2457.740000,289.460000,18.000000,262.109444,2260.230000,0.919638,197.510000,1
1714.910000,2275.000000,311.350000,15.000000,286.750667,2026.260000,0.890664,248.740000,0
2185.590000,2615.750000,309.630000,10.000000,511.097000,2495.220000,0.953921,120.530000,1
1698.130000,2497.120000,277.370000,10.000000,447.262000,1975.500000,0.791111,521.620000,0
684.960000,866.130000,108.770000,20.000000,82.993000,793.730000,0.916410,72.400000,1
745.600000,942.130000,87.840000,20.000000,88.778500,833.440000,0.884634,108.690000,0
618.510000,846.040000,82.030000,15.000000,103.105333,700.540000,0.828022,145.500000,0
874.170000,923.750000,82.970000,15.000000,125.392667,957.140000,1.036146,-33.390000,1
815.430000,902.350000,51.860000,21.000000,84.268571,867.290000,0.961146,35.060000,1
801.140000,878.330000,78.860000,17.000000,103.431176,880.000000,1.001901,-1.670000,1
1083.430000,1200.670000,79.640000,19.000000,124.407368,1163.070000,0.968684,37.600000,1
1305.590000,1396.440000,109.800000,15.000000,187.455333,1415.390000,1.013570,-18.950000,1
1202.700000,1680.360000,149.280000,10.000000,303.234000,1351.980000,0.804578,328.380000,0
1043.120000,1262.880000,78.120000,18.000000,132.451111,1121.240000,0.887844,141.640000,0
1565.430000,1714.940000,139.510000,17.000000,201.169412,1704.940000,0.994169,10.000000,1
1130.930000,1473.000000,114.410000,20.000000,135.917000,1245.340000,0.845445,227.660000,0
994.560000,1763.920000,261.500000,11.000000,274.543636,1256.060000,0.712084,507.860000,0
1134.830000,1790.050000,271.310000,17.000000,188.011176,1406.140000,0.785531,383.910000,0
1114.570000,1647.200000,353.010000,14.000000,222.484286,1467.580000,0.890954,179.620000,0
1234.600000,1861.000000,278.820000,14.000000,241.030000,1513.420000,0.813229,347.580000,0
1339.890000,2081.120000,284.950000,20.000000,185.298000,1624.840000,0.780753,456.280000,0
1285.790000,1855.600000,294.010000,21.000000,163.590476,1579.800000,0.851369,275.800000,0
1123.340000,1440.360000,165.930000,17.000000,160.566471,1289.270000,0.895103,151.090000,0
1029.930000,1511.850000,114.970000,12.000000,221.395833,1144.900000,0.757284,366.950000,0
1390.800000,1541.790000,132.820000,17.000000,180.318235,1523.620000,0.988215,18.170000,1
1076.740000,1417.090000,90.380000,13.000000,198.785385,1167.120000,0.823603,249.970000,0
1248.130000,1739.410000,96.040000,10.000000,308.358000,1344.170000,0.772774,395.240000,0
1146.610000,1403.050000,145.100000,13.000000,207.289231,1291.710000,0.920644,111.340000,1
516.110000,754.210000,10.860000,18.000000,71.176667,526.970000,0.698705,227.240000,0
601.670000,705.500000,17.180000,20.000000,66.217500,618.850000,0.877179,86.650000,0
710.470000,817.630000,25.770000,17.000000,91.404118,736.240000,0.900456,81.390000,1
714.420000,826.220000,24.100000,12.000000,130.395000,738.520000,0.893854,87.700000,0
614.380000,717.250000,0.000000,19.000000,70.085789,614.380000,0.856577,102.870000,0
556.030000,719.970000,32.630000,11.000000,118.966364,588.660000,0.817617,131.310000,0
1981.110000,2433.070000,286.560000,18.000000,261.152222,2267.670000,0.932020,165.400000,1
2075.630000,2478.010000,297.680000,21.000000,231.015238,2373.310000,0.957748,104.700000,1
2351.830000,2775.250000,369.180000,19.000000,289.276842,2721.010000,0.980456,54.240000,1
2424.660000,2456.060000,244.540000,18.000000,284.736667,2669.200000,1.086781,-213.140000,1
1653.990000,2446.590000,213.620000,13.000000,331.861538,1867.610000,0.763352,578.980000,0
2116.440000,2176.810000,214.130000,18.000000,250.410000,2330.570000,1.070635,-153.760000,1
1555.230000,1928.340000,255.020000,13.000000,287.583846,1810.250000,0.938761,118.090000,1
1619.070000,2152.150000,147.060000,13.000000,301.406154,1766.130000,0.820635,386.020000,0
1597.400000,2053.600000,185.980000,10.000000,383.698000,1783.380000,0.868416,270.220000,0
1687.460000,1906.460000,133.650000,13.000000,286.736154,1821.110000,0.955231,85.350000,1
1337.150000,1834.360000,191.790000,15.000000,224.220000,1528.940000,0.833501,305.420000,0
1547.040000,1828.990000,131.870000,14.000000,250.564286,1678.910000,0.917944,150.080000,1
497.130000,544.530000,58.050000,14.000000,78.550714,555.180000,1.019558,-10.650000,1
574.710000,609.060000,70.390000,20.000000,62.708000,645.100000,1.059173,-36.040000,1
424.900000,512.780000,35.850000,20.000000,48.676500,460.750000,0.898533,52.030000,0
485.840000,646.850000,69.660000,16.000000,75.146875,555.500000,0.858777,91.350000,0
516.300000,551.860000,52.810000,11.000000,101.906364,569.110000,1.031258,-17.250000,1
425.390000,412.500000,59.250000,15.000000,59.809333,484.640000,1.174885,-72.140000,1
755.780000,1096.460000,125.170000,12.000000,164.784167,880.950000,0.803449,215.510000,0
721.430000,931.050000,74.090000,20.000000,86.328500,795.520000,0.854433,135.530000,0
768.450000,1090.230000,113.800000,10.000000,197.248000,882.250000,0.809233,207.980000,0
600.350000,1197.590000,160.420000,15.000000,130.557333,760.770000,0.635251,436.820000,0
642.580000,976.820000,108.050000,16.000000,107.965625,750.630000,0.768442,226.190000,0
597.040000,972.230000,65.680000,19.000000,86.050000,662.720000,0.681649,309.510000,0
779.810000,1066.930000,0.000000,11.000000,167.885455,779.810000,0.730891,287.120000,0
693.470000,1078.070000,234.820000,15.000000,133.757333,928.290000,0.861067,149.780000,0
642.820000,1136.520000,121.800000,14.000000,135.795714,764.620000,0.672773,371.900000,0
739.930000,1182.520000,113.820000,16.000000,127.266875,853.750000,0.721975,328.770000,0
768.810000,1113.870000,119.440000,15.000000,133.474667,888.250000,0.797445,225.620000,0
701.660000,1094.710000,0.000000,15.000000,119.758000,701.660000,0.640955,393.050000,0
0.000000,0.000000,117.690000,1.000000,117.690000,117.690000,0.000000,-117.690000,1
1461.960000,1730.460000,206.430000,10.000000,339.885000,1668.390000,0.964131,62.070000,1
1444.650000,1876.940000,329.140000,14.000000,260.766429,1773.790000,0.945044,103.150000,1
1437.240000,1943.680000,299.300000,20.000000,184.011000,1736.540000,0.893429,207.140000,0
1719.740000,1958.760000,224.000000,20.000000,195.125000,1943.740000,0.992332,15.020000,1
1521.730000,1788.570000,238.890000,12.000000,295.765833,1760.620000,0.984373,27.950000,1
1380.260000,1804.200000,196.080000,18.000000,187.807778,1576.340000,0.873706,227.860000,0
1342.580000,2031.840000,171.100000,13.000000,272.732308,1513.680000,0.744980,518.160000,0
1532.910000,2065.330000,192.960000,19.000000,199.536842,1725.870000,0.835639,339.460000,0
1529.370000,1879.200000,151.020000,13.000000,273.814615,1680.390000,0.894205,198.810000,0
1572.040000,2312.890000,102.210000,13.000000,306.703077,1674.250000,0.723878,638.640000,0
1253.920000,2002.560000,133.390000,11.000000,308.170000,1387.310000,0.692768,615.250000,0
1355.040000,1866.890000,173.250000,17.000000,199.716471,1528.290000,0.818629,338.600000,0
1592.770000,1605.440000,86.460000,13.000000,252.666923,1679.230000,1.045962,-73.790000,1
1566.970000,1875.510000,103.460000,11.000000,322.358182,1670.430000,0.890654,205.080000,0
1566.790000,1750.730000,124.360000,16.000000,215.117500,1691.150000,0.965968,59.580000,1
1156.160000,1737.950000,97.030000,10.000000,299.114000,1253.190000,0.721074,484.760000,0
1423.190000,1714.380000,75.060000,15.000000,214.175333,1498.250000,0.873931,216.130000,0
1552.240000,1897.280000,151.160000,18.000000,200.037778,1703.400000,0.897812,193.880000,0
1511.580000,1881.440000,135.120000,11.000000,320.740000,1646.700000,0.875234,234.740000,0
1466.190000,1723.070000,193.950000,20.000000,169.160500,1660.140000,0.963478,62.930000,1
1493.650000,2041.940000,242.730000,12.000000,314.860000,1736.380000,0.850358,305.560000,0
1360.650000,2059.430000,257.270000,12.000000,306.445833,1617.920000,0.785615,441.510000,0
1430.450000,1972.520000,144.650000,18.000000,197.090000,1575.100000,0.798522,397.420000,0
1060.120000,1840.900000,195.870000,18.000000,172.049444,1255.990000,0.682270,584.910000,0
1328.000000,1511.650000,68.850000,21.000000,138.500000,1396.850000,0.924056,114.800000,1
1021.310000,1427.570000,61.570000,13.000000,193.111538,1082.880000,0.758548,344.690000,0
1340.820000,1455.600000,98.480000,17.000000,170.288235,1439.300000,0.988802,16.300000,1
912.120000,1333.840000,53.370000,20.000000,114.966500,965.490000,0.723842,368.350000,0
1239.200000,1347.810000,68.190000,10.000000,265.520000,1307.390000,0.970011,40.420000,1
1308.650000,1562.360000,58.920000,16.000000,183.120625,1367.570000,0.875323,194.790000,0
1677.110000,2155.520000,0.000000,16.000000,239.539375,1677.110000,0.778054,478.410000,0
1769.990000,2256.810000,367.460000,13.000000,338.020000,2137.450000,0.947111,119.360000,1
1812.510000,2242.150000,108.060000,19.000000,219.090526,1920.570000,0.856575,321.580000,0
1360.460000,1841.300000,132.860000,17.000000,196.154118,1493.320000,0.811014,347.980000,0
1601.180000,2286.270000,240.040000,18.000000,229.305000,1841.220000,0.805338,445.050000,0
1306.360000,1974.480000,0.000000,17.000000,192.990588,1306.360000,0.661622,668.120000,0
0.000000,0.000000,131.380000,1.000000,131.380000,131.380000,0.000000,-131.380000,1
1902.550000,2273.000000,154.410000,16.000000,270.622500,2056.960000,0.904954,216.040000,1
2510.530000,2501.080000,225.440000,12.000000,436.420833,2735.970000,1.093915,-234.890000,1
1921.960000,2426.000000,238.860000,19.000000,241.411579,2160.820000,0.890692,265.180000,0
2133.230000,2622.390000,195.590000,14.000000,353.657857,2328.820000,0.888053,293.570000,0
2163.400000,2171.910000,115.700000,12.000000,370.917500,2279.100000,1.049353,-107.190000,1
2219.720000,2007.590000,170.660000,16.000000,274.873125,2390.380000,1.190671,-382.790000,1
676.760000,792.310000,0.000000,18.000000,81.615000,676.760000,0.854161,115.550000,0
694.270000,753.250000,84.560000,22.000000,69.640000,778.830000,1.033960,-25.580000,1
706.690000,751.520000,31.040000,15.000000,99.283333,737.730000,0.981651,13.790000,1
779.970000,897.270000,54.350000,17.000000,101.858235,834.320000,0.929843,62.950000,1
710.790000,861.930000,43.340000,16.000000,101.003750,754.130000,0.874932,107.800000,0
693.400000,854.710000,47.440000,17.000000,93.855882,740.840000,0.866774,113.870000,0
1350.100000,1936.620000,391.400000,17.000000,216.360000,1741.500000,0.899247,195.120000,0
1233.470000,1848.030000,265.290000,16.000000,209.174375,1498.760000,0.811004,349.270000,0
1265.870000,2137.740000,247.140000,11.000000,331.886364,1513.010000,0.707761,624.730000,0
1435.520000,1879.290000,410.500000,18.000000,206.961667,1846.020000,0.982297,33.270000,1
1289.670000,1960.580000,0.000000,12.000000,270.854167,1289.670000,0.657800,670.910000,0
1527.250000,2155.620000,578.140000,12.000000,355.084167,2105.390000,0.976698,50.230000,1
682.850000,809.960000,25.030000,18.000000,84.324444,707.880000,0.873969,102.080000,0
689.010000,805.550000,0.000000,10.000000,149.456000,689.010000,0.855329,116.540000,0
698.400000,767.770000,63.860000,20.000000,76.501500,762.260000,0.992823,5.510000,1
580.310000,774.170000,25.590000,13.000000,106.159231,605.900000,0.782645,168.270000,0
665.680000,782.520000,19.930000,19.000000,77.270000,685.610000,0.876157,96.910000,0
633.300000,782.690000,32.570000,17.000000,85.209412,665.870000,0.850746,116.820000,0
2124.820000,2403.990000,137.970000,10.000000,466.678000,2262.790000,0.941264,141.200000,1
1687.160000,2331.790000,132.930000,14.000000,296.562857,1820.090000,0.780555,511.700000,0
1607.070000,2107.700000,153.710000,17.000000,227.557647,1760.780000,0.835404,346.920000,0
1536.150000,2325.360000,136.560000,14.000000,285.576429,1672.710000,0.719334,652.650000,0
1571.820000,2199.920000,104.520000,21.000000,184.583810,1676.340000,0.762000,523.580000,0
1544.530000,2489.830000,132.490000,17.000000,245.108824,1677.020000,0.673548,812.810000,0
1217.250000,1471.540000,170.710000,15.000000,190.633333,1387.960000,0.943202,83.580000,1
933.360000,1347.570000,105.340000,11.000000,216.933636,1038.700000,0.770795,308.870000,0
1005.860000,1226.780000,105.220000,15.000000,155.857333,1111.080000,0.905688,115.700000,1
1170.170000,1483.680000,78.880000,17.000000,160.748824,1249.050000,0.841859,234.630000,0
1076.740000,1493.040000,162.570000,10.000000,273.235000,1239.310000,0.830058,253.730000,0
1407.650000,1576.170000,118.420000,15.000000,206.816000,1526.070000,0.968214,50.100000,1
1166.330000,1561.490000,127.090000,21.000000,135.948095,1293.420000,0.828324,268.070000,0
1198.370000,1771.280000,205.580000,13.000000,244.248462,1403.950000,0.792619,367.330000,0
1203.810000,1385.280000,109.870000,15.000000,179.930667,1313.680000,0.948314,71.600000,1
1255.210000,1501.160000,0.000000,16.000000,172.273125,1255.210000,0.836160,245.950000,0
1109.520000,1417.590000,245.400000,13.000000,213.270000,1354.920000,0.955791,62.670000,1
1411.060000,1667.360000,164.360000,14.000000,231.627143,1575.420000,0.944859,91.940000,1
904.650000,1081.460000,0.000000,16.000000,124.131875,904.650000,0.836508,176.810000,0
975.790000,1037.260000,143.440000,12.000000,179.707500,1119.230000,1.079026,-81.970000,1
864.510000,943.730000,99.720000,19.000000,100.418947,964.230000,1.021722,-20.500000,1
884.810000,1089.190000,128.100000,16.000000,131.381250,1012.910000,0.929966,76.280000,1
1001.830000,1069.510000,104.070000,18.000000,120.856111,1105.900000,1.034025,-36.390000,1
812.330000,1070.100000,112.460000,11.000000,181.353636,924.790000,0.864209,145.310000,0
731.480000,942.340000,197.170000,14.000000,133.642143,928.650000,0.985472,13.690000,1
516.740000,773.080000,86.170000,11.000000,125.090000,602.910000,0.779880,170.170000,0
605.400000,885.410000,120.610000,19.000000,84.811579,726.010000,0.819970,159.400000,0
666.310000,942.470000,0.000000,10.000000,160.878000,666.310000,0.706983,276.160000,0
810.160000,850.970000,332.270000,15.000000,132.893333,1142.430000,1.342503,-291.460000,1
801.240000,1049.370000,147.780000,10.000000,199.839000,949.020000,0.904371,100.350000,1
1689.890000,1649.360000,122.320000,15.000000,230.771333,1812.210000,1.098735,-162.850000,1
1755.780000,1877.450000,137.420000,10.000000,377.065000,1893.200000,1.008389,-15.750000,1
1672.720000,2049.090000,132.680000,20.000000,192.724500,1805.400000,0.881074,243.690000,0
1311.270000,1537.890000,111.960000,19.000000,155.848421,1423.230000,0.925443,114.660000,1
1350.540000,1525.640000,85.010000,20.000000,148.059500,1435.550000,0.940949,90.090000,1
1618.660000,1693.040000,108.970000,21.000000,162.889048,1727.630000,1.020431,-34.590000,1
1036.610000,1168.920000,101.610000,17.000000,135.714118,1138.220000,0.973736,30.700000,1
817.430000,1058.900000,85.460000,14.000000,140.127857,902.890000,0.852668,156.010000,0
933.710000,1194.440000,86.460000,17.000000,130.271176,1020.170000,0.854099,174.270000,0
812.610000,975.990000,101.700000,20.000000,94.515000,914.310000,0.936803,61.680000,1
792.880000,1144.640000,110.550000,11.000000,186.188182,903.430000,0.789270,241.210000,0
904.010000,998.520000,70.680000,12.000000,164.434167,974.690000,0.976135,23.830000,1
1512.950000,1956.220000,250.910000,13.000000,286.160000,1763.860000,0.901668,192.360000,1
1262.850000,1754.870000,164.000000,15.000000,212.114667,1426.850000,0.813080,328.020000,0
1394.250000,1737.760000,141.060000,10.000000,327.307000,1535.310000,0.883499,202.450000,0
1515.840000,1895.430000,226.960000,21.000000,173.249048,1742.800000,0.919475,152.630000,1
1756.160000,2059.340000,133.660000,16.000000,246.822500,1889.820000,0.917682,169.520000,1
1829.080000,2275.630000,254.520000,13.000000,335.325385,2083.600000,0.915615,192.030000,1
908.060000,1514.450000,128.960000,13.000000,196.266923,1037.020000,0.684750,477.430000,0
1316.660000,1809.010000,161.010000,16.000000,205.417500,1477.670000,0.816839,331.340000,0
1048.350000,1499.530000,152.380000,13.000000,207.712308,1200.730000,0.800738,298.800000,0
1167.060000,1805.040000,164.830000,20.000000,156.846500,1331.890000,0.737873,473.150000,0
1143.190000,1635.340000,210.090000,12.000000,249.051667,1353.280000,0.827522,282.060000,0
1289.080000,1636.920000,212.070000,12.000000,261.505833,1501.150000,0.917058,135.770000,1
1262.280000,1629.820000,0.000000,13.000000,222.469231,1262.280000,0.774490,367.540000,0
1427.230000,1849.000000,181.700000,19.000000,181.996316,1608.930000,0.870162,240.070000,0
1204.570000,1524.580000,169.830000,18.000000,161.054444,1374.400000,0.901494,150.180000,1
1322.720000,1644.570000,152.180000,15.000000,207.964667,1474.900000,0.896830,169.670000,0
1052.710000,1512.710000,108.520000,10.000000,267.394000,1161.230000,0.767649,351.480000,0
1326.970000,1836.720000,115.190000,11.000000,298.080000,1442.160000,0.785182,394.560000,0
2291.960000,3050.000000,164.200000,16.000000,344.135000,2456.160000,0.805298,593.840000,0
2294.870000,3133.420000,138.830000,15.000000,371.141333,2433.700000,0.776691,699.720000,0
2632.340000,3323.470000,168.090000,18.000000,340.216667,2800.430000,0.842622,523.040000,0
2525.770000,3260.060000,125.650000,14.000000,422.248571,2651.420000,0.813304,608.640000,0
2999.300000,3434.240000,122.810000,10.000000,655.635000,3122.110000,0.909112,312.130000,1
2142.860000,3069.800000,135.790000,12.000000,445.704167,2278.650000,0.742280,791.150000,0
1526.740000,1752.130000,35.740000,18.000000,184.145000,1562.480000,0.891760,189.650000,0
1259.960000,1469.870000,23.220000,20.000000,137.652500,1283.180000,0.872989,186.690000,0
1626.710000,1775.650000,46.290000,16.000000,215.540625,1673.000000,0.942190,102.650000,1
1822.610000,1776.580000,37.150000,19.000000,191.386316,1859.760000,1.046820,-83.180000,1
1531.190000,1838.150000,54.500000,19.000000,180.202105,1585.690000,0.862655,252.460000,0
1346.350000,1701.550000,51.500000,21.000000,147.590476,1397.850000,0.821516,303.700000,0
821.660000,906.000000,82.200000,16.000000,113.116250,903.860000,0.997638,2.140000,1
770.260000,910.850000,77.890000,14.000000,125.642857,848.150000,0.931163,62.700000,1
844.640000,867.600000,76.260000,18.000000,99.361111,920.900000,1.061434,-53.300000,1
636.660000,864.540000,76.090000,19.000000,83.015263,712.750000,0.824427,151.790000,0
930.920000,873.740000,95.830000,11.000000,172.771818,1026.750000,1.175121,-153.010000,1
722.480000,905.890000,91.220000,11.000000,156.326364,813.700000,0.898233,92.190000,0
1307.800000,1805.080000,157.100000,12.000000,272.498333,1464.900000,0.811543,340.180000,0
1303.790000,1875.590000,221.240000,11.000000,309.147273,1525.030000,0.813093,350.560000,0
1075.270000,1544.200000,166.650000,11.000000,253.283636,1241.920000,0.804248,302.280000,0
1393.970000,1673.470000,178.670000,20.000000,162.305500,1572.640000,0.939748,100.830000,1
1431.120000,1856.830000,235.150000,21.000000,167.766667,1666.270000,0.897373,190.560000,0
1312.070000,1708.840000,157.140000,21.000000,151.335714,1469.210000,0.859770,239.630000,0
825.550000,1052.870000,50.170000,15.000000,128.572667,875.720000,0.831746,177.150000,0
692.150000,1025.680000,49.470000,12.000000,147.275000,741.620000,0.723052,284.060000,0
914.900000,1164.460000,45.000000,16.000000,132.772500,959.900000,0.824331,204.560000,0
855.440000,971.520000,38.170000,16.000000,116.570625,893.610000,0.919806,77.910000,1
742.640000,910.950000,40.790000,18.000000,94.132222,783.430000,0.860014,127.520000,0
890.330000,1111.390000,57.230000,16.000000,128.684375,947.560000,0.852590,163.830000,0
1608.420000,1968.790000,139.000000,19.000000,195.590000,1747.420000,0.887560,221.370000,0
1436.990000,1650.390000,0.000000,9.000000,343.042222,1436.990000,0.870697,213.400000,0
1653.870000,1796.480000,201.790000,22.000000,166.006364,1855.660000,1.032942,-59.180000,1
1355.790000,1662.230000,151.260000,15.000000,211.285333,1507.050000,0.906643,155.180000,1
1411.840000,1774.560000,178.650000,11.000000,305.913636,1590.490000,0.896273,184.070000,0
1606.290000,1880.420000,191.230000,16.000000,229.871250,1797.520000,0.955914,82.900000,1
1449.440000,2232.880000,388.050000,10.000000,407.037000,1837.490000,0.822924,395.390000,0
1430.920000,2173.300000,452.070000,16.000000,253.518125,1882.990000,0.866420,290.310000,0
1913.090000,2167.250000,322.320000,13.000000,338.666154,2235.410000,1.031450,-68.160000,1
1478.930000,2040.530000,0.000000,14.000000,251.390000,1478.930000,0.724777,561.600000,0
1489.270000,2049.120000,586.980000,12.000000,343.780833,2076.250000,1.013240,-27.130000,1
1753.190000,2308.580000,403.700000,17.000000,262.674706,2156.890000,0.934293,151.690000,1
935.560000,1366.980000,0.000000,19.000000,121.186316,935.560000,0.684399,431.420000,0
891.520000,1174.660000,138.710000,21.000000,104.994762,1030.230000,0.877045,144.430000,0
935.920000,1117.270000,62.940000,11.000000,192.375455,998.860000,0.894018,118.410000,0
1089.680000,1489.890000,50.210000,18.000000,146.098889,1139.890000,0.765083,350.000000,0
1055.090000,1390.270000,73.940000,11.000000,229.027273,1129.030000,0.812094,261.240000,0
868.930000,1228.290000,63.560000,19.000000,113.725263,932.490000,0.759177,295.800000,0
1991.800000,2772.920000,0.000000,18.000000,264.706667,1991.800000,0.718304,781.120000,0
2407.430000,3140.550000,275.240000,12.000000,485.268333,2682.670000,0.854204,457.880000,0
2349.460000,3121.230000,204.610000,10.000000,567.530000,2554.070000,0.818290,567.160000,0
2349.690000,2885.610000,0.000000,12.000000,436.275000,2349.690000,0.814278,535.920000,0
2815.730000,3322.700000,436.000000,17.000000,386.731176,3251.730000,0.978641,70.970000,1
1734.390000,2732.460000,145.010000,16.000000,288.241250,1879.400000,0.687805,853.060000,0
800.560000,1212.740000,141.370000,14.000000,153.905000,941.930000,0.776696,270.810000,0
1071.850000,1459.780000,319.780000,20.000000,142.570500,1391.630000,0.953315,68.150000,1
889.340000,1291.690000,248.140000,10.000000,242.917000,1137.480000,0.880614,154.210000,0
913.470000,1113.870000,113.720000,10.000000,214.106000,1027.190000,0.922181,86.680000,1
933.940000,1168.420000,197.990000,17.000000,135.314706,1131.930000,0.968770,36.490000,1
774.130000,1226.980000,201.950000,21.000000,104.907619,976.080000,0.795514,250.900000,0
2196.240000,2063.860000,128.580000,11.000000,398.970909,2324.820000,1.126443,-260.960000,1
1778.220000,2040.240000,199.000000,19.000000,211.445263,1977.220000,0.969111,63.020000,1
1973.390000,2028.170000,158.830000,12.000000,346.699167,2132.220000,1.051302,-104.050000,1
2088.810000,2051.670000,205.910000,14.000000,310.456429,2294.720000,1.118464,-243.050000,1
1776.130000,2017.040000,148.240000,14.000000,281.529286,1924.370000,0.954056,92.670000,1
2051.200000,2118.010000,180.080000,17.000000,255.840588,2231.280000,1.053479,-113.270000,1
1841.670000,2037.640000,58.120000,14.000000,281.245000,1899.790000,0.932348,137.850000,1
1642.960000,1732.260000,60.560000,12.000000,286.315000,1703.520000,0.983409,28.740000,1
1169.570000,1704.660000,33.610000,20.000000,145.392000,1203.180000,0.705818,501.480000,0
1545.860000,1805.810000,0.000000,13.000000,257.820769,1545.860000,0.856048,259.950000,0
1521.100000,1918.760000,104.400000,15.000000,236.284000,1625.500000,0.847162,293.260000,0
1389.320000,1888.230000,66.770000,21.000000,159.253333,1456.090000,0.771140,432.140000,0
787.940000,1062.940000,8.850000,14.000000,132.837857,796.790000,0.749610,266.150000,0
874.360000,1023.450000,13.050000,13.000000,146.989231,887.410000,0.867077,136.040000,0
744.930000,1095.900000,12.550000,10.000000,185.338000,757.480000,0.691194,338.420000,0
682.720000,925.850000,0.000000,11.000000,146.233636,682.720000,0.737398,243.130000,0
788.540000,1083.430000,18.250000,19.000000,99.485263,806.790000,0.744663,276.640000,0
738.700000,952.940000,10.530000,18.000000,94.565000,749.230000,0.786230,203.710000,0
450.900000,573.980000,31.370000,12.000000,88.020833,482.270000,0.840221,91.710000,0
383.900000,503.110000,22.700000,20.000000,45.485500,406.600000,0.808173,96.510000,0
495.460000,598.220000,19.380000,10.000000,111.306000,514.840000,0.860620,83.380000,0
371.380000,503.350000,28.140000,20.000000,45.143500,399.520000,0.793722,103.830000,0
443.400000,524.470000,25.500000,21.000000,47.303333,468.900000,0.894045,55.570000,0
381.330000,470.800000,24.180000,12.000000,73.025833,405.510000,0.861321,65.290000,0
2722.240000,2611.490000,243.890000,13.000000,429.047692,2966.130000,1.135800,-354.640000,1
2150.420000,2727.510000,341.240000,19.000000,274.693158,2491.660000,0.913529,235.850000,1
2122.690000,2504.890000,356.690000,21.000000,237.346190,2479.380000,0.989816,25.510000,1
1720.970000,2426.600000,374.320000,15.000000,301.459333,2095.290000,0.863467,331.310000,0
2002.160000,2880.350000,360.550000,15.000000,349.537333,2362.710000,0.820286,517.640000,0
1544.850000,2350.090000,317.700000,19.000000,221.717895,1862.550000,0.792544,487.540000,0
1208.040000,1589.960000,167.660000,19.000000,156.087368,1375.700000,0.865242,214.260000,0
895.200000,1409.270000,229.650000,12.000000,211.176667,1124.850000,0.798179,284.420000,0
848.150000,1332.010000,158.430000,16.000000,146.161875,1006.580000,0.755685,325.430000,0
1325.320000,1516.500000,181.940000,10.000000,302.376000,1507.260000,0.993907,9.240000,1
1149.900000,1636.360000,204.810000,19.000000,157.424737,1354.710000,0.827880,281.650000,0
1254.460000,1559.230000,230.490000,11.000000,276.743636,1484.950000,0.952361,74.280000,1
873.570000,1040.670000,84.500000,14.000000,142.767143,958.070000,0.920628,82.600000,1
904.200000,1237.750000,115.990000,11.000000,205.267273,1020.190000,0.824229,217.560000,0
637.320000,954.860000,61.560000,12.000000,137.811667,698.880000,0.731919,255.980000,0
948.960000,1271.380000,106.280000,16.000000,145.413750,1055.240000,0.829996,216.140000,0
927.130000,1159.740000,57.090000,13.000000,164.920000,984.220000,0.848656,175.520000,0
917.320000,1357.420000,87.120000,10.000000,236.186000,1004.440000,0.739963,352.980000,0
1640.640000,2051.350000,103.050000,13.000000,291.926154,1743.690000,0.850021,307.660000,0
1597.190000,1795.230000,42.780000,10.000000,343.520000,1639.970000,0.913515,155.260000,1
1472.910000,1780.130000,89.040000,17.000000,196.592941,1561.950000,0.877436,218.180000,0
1378.670000,1717.280000,66.750000,21.000000,150.604762,1445.420000,0.841692,271.860000,0
1416.770000,1690.370000,66.710000,17.000000,186.697059,1483.480000,0.877607,206.890000,0
1395.390000,1741.270000,68.500000,19.000000,168.692632,1463.890000,0.840702,277.380000,0
1553.710000,2098.560000,155.070000,20.000000,190.367000,1708.780000,0.814263,389.780000,0
2039.580000,2457.400000,170.670000,21.000000,222.269048,2210.250000,0.899426,247.150000,0
1809.810000,2059.760000,201.960000,15.000000,271.435333,2011.770000,0.976701,47.990000,1
1746.730000,2279.410000,241.740000,17.000000,251.051765,1988.470000,0.872362,290.940000,0
1857.460000,2276.060000,170.940000,12.000000,358.705000,2028.400000,0.891189,247.660000,0
1713.880000,2393.960000,173.750000,18.000000,237.866111,1887.630000,0.788497,506.330000,0
1080.000000,1375.340000,86.710000,15.000000,169.470000,1166.710000,0.848307,208.630000,0
980.280000,1190.820000,94.770000,13.000000,174.297692,1075.050000,0.902781,115.770000,1
921.230000,1228.270000,83.200000,19.000000,117.510526,1004.430000,0.817760,223.840000,0
902.580000,1250.750000,109.130000,21.000000,107.736190,1011.710000,0.808883,239.040000,0
1043.990000,1339.710000,98.420000,15.000000,165.474667,1142.410000,0.852729,197.300000,0
1042.880000,1337.840000,64.740000,16.000000,152.841250,1107.620000,0.827917,230.220000,0
1221.440000,1513.100000,0.000000,14.000000,195.324286,1221.440000,0.807243,291.660000,0
1128.690000,1412.750000,222.520000,13.000000,212.612308,1351.210000,0.956440,61.540000,1
1273.510000,1566.400000,140.290000,21.000000,141.914286,1413.800000,0.902579,152.600000,1
1846.730000,1596.110000,150.920000,11.000000,326.705455,1997.650000,1.251574,-401.540000,1
1417.230000,1583.690000,98.740000,11.000000,281.787273,1515.970000,0.957239,67.720000,1
1498.300000,1640.300000,112.890000,20.000000,162.574500,1611.190000,0.982253,29.110000,1
1340.040000,1714.150000,499.180000,11.000000,323.033636,1839.220000,1.072963,-125.070000,1
1056.610000,1458.980000,315.390000,16.000000,176.936250,1372.000000,0.940383,86.980000,1
1258.240000,1771.430000,307.500000,13.000000,256.705385,1565.740000,0.883885,205.690000,0
943.480000,1647.810000,303.860000,17.000000,170.302941,1247.340000,0.756968,400.470000,0
1435.630000,1948.140000,418.990000,10.000000,380.276000,1854.620000,0.951995,93.520000,1
1188.900000,1655.440000,431.590000,18.000000,181.996111,1620.490000,0.978888,34.950000,1
392.140000,501.810000,44.570000,12.000000,78.210000,436.710000,0.870270,65.100000,0
401.500000,617.560000,60.260000,13.000000,83.024615,461.760000,0.747717,155.800000,0
506.920000,566.960000,40.970000,18.000000,61.936111,547.890000,0.966364,19.070000,1
469.200000,603.260000,46.410000,12.000000,93.239167,515.610000,0.854706,87.650000,0
546.690000,581.950000,53.030000,16.000000,73.854375,599.720000,1.030535,-17.770000,1
423.530000,579.040000,64.410000,19.000000,56.156842,487.940000,0.842671,91.100000,0
1149.470000,1479.890000,86.430000,17.000000,159.752353,1235.900000,0.835130,243.990000,0
1458.970000,1971.660000,87.800000,10.000000,351.843000,1546.770000,0.784501,424.890000,0
1628.230000,1884.180000,60.690000,15.000000,238.206667,1688.920000,0.896369,195.260000,0
1766.670000,2033.040000,91.060000,12.000000,324.230833,1857.730000,0.913770,175.310000,1
1805.870000,2054.740000,100.580000,18.000000,220.066111,1906.450000,0.927830,148.290000,1
1821.120000,1978.260000,86.520000,15.000000,259.060000,1907.640000,0.964302,70.620000,1
1868.850000,2361.990000,335.730000,19.000000,240.345789,2204.580000,0.933357,157.410000,1
1925.090000,2519.120000,323.630000,19.000000,250.938947,2248.720000,0.892661,270.400000,0
1832.390000,2222.420000,332.970000,12.000000,365.648333,2165.360000,0.974325,57.060000,1
1965.050000,2275.610000,269.540000,16.000000,281.887500,2234.590000,0.981974,41.020000,1
1617.110000,2218.540000,268.340000,15.000000,273.599333,1885.450000,0.849861,333.090000,0
1919.320000,2281.410000,285.390000,15.000000,299.074667,2204.710000,0.966380,76.700000,1
804.980000,1093.280000,239.840000,21.000000,101.814286,1044.820000,0.955675,48.460000,1
748.830000,1049.550000,202.310000,19.000000,105.299474,951.140000,0.906236,98.410000,1
768.870000,1001.080000,192.330000,16.000000,122.642500,961.200000,0.960163,39.880000,1
795.750000,1071.920000,180.200000,12.000000,170.655833,975.950000,0.910469,95.970000,1
1025.070000,1217.510000,210.760000,10.000000,245.334000,1235.830000,1.015047,-18.320000,1
1021.780000,1202.380000,0.000000,13.000000,171.089231,1021.780000,0.849798,180.600000,0
0.000000,0.000000,163.450000,1.000000,163.450000,163.450000,0.000000,-163.450000,1
1587.540000,1726.040000,0.000000,18.000000,184.087778,1587.540000,0.919759,138.500000,1
1577.080000,1981.510000,427.060000,18.000000,221.425000,2004.140000,1.011421,-22.630000,1
1587.250000,1921.370000,194.130000,19.000000,194.881579,1781.380000,0.927141,139.990000,1
1517.440000,1990.660000,221.640000,21.000000,177.606667,1739.080000,0.873620,251.580000,0
1426.070000,1952.330000,188.530000,15.000000,237.795333,1614.600000,0.827012,337.730000,0
1226.350000,1889.290000,0.000000,17.000000,183.272941,1226.350000,0.649106,662.940000,0
0.000000,0.000000,240.180000,1.000000,240.180000,240.180000,0.000000,-240.180000,1
1275.760000,1637.120000,287.100000,21.000000,152.380000,1562.860000,0.954640,74.260000,1
1452.890000,1724.280000,214.420000,18.000000,188.421667,1667.310000,0.966960,56.970000,1
1392.100000,1568.690000,178.300000,16.000000,196.193125,1570.400000,1.001090,-1.710000,1
1235.430000,1622.600000,273.540000,18.000000,173.976111,1508.970000,0.929970,113.630000,1
1619.860000,1900.910000,188.910000,15.000000,247.312000,1808.770000,0.951528,92.140000,1
1387.120000,1418.320000,119.630000,17.000000,172.062941,1506.750000,1.062348,-88.430000,1
1710.670000,1992.580000,199.830000,13.000000,300.236923,1910.500000,0.958807,82.080000,1
1687.180000,2304.030000,202.640000,19.000000,220.728947,1889.820000,0.820224,414.210000,0
1671.970000,1989.060000,235.940000,13.000000,299.766923,1907.910000,0.959202,81.150000,1
1485.110000,2037.830000,0.000000,9.000000,391.437778,1485.110000,0.728770,552.720000,0
1595.430000,1962.110000,437.190000,16.000000,249.670625,2032.620000,1.035936,-70.510000,1
1327.690000,2044.130000,215.230000,16.000000,224.190625,1542.920000,0.754805,501.210000,0
965.330000,1392.210000,97.800000,13.000000,188.872308,1063.130000,0.763628,329.080000,0
1151.860000,1471.440000,118.230000,15.000000,182.768667,1270.090000,0.863161,201.350000,0
1145.780000,1488.880000,82.830000,10.000000,271.749000,1228.610000,0.825191,260.270000,0
1114.780000,1324.190000,0.000000,17.000000,143.468824,1114.780000,0.841858,209.410000,0
984.690000,1542.840000,177.700000,13.000000,208.094615,1162.390000,0.753409,380.450000,0
961.010000,1293.790000,86.220000,15.000000,156.068000,1047.230000,0.809428,246.560000,0
1205.230000,1432.150000,113.540000,17.000000,161.818824,1318.770000,0.920832,113.380000,1
1262.350000,1573.380000,128.790000,21.000000,141.167619,1391.140000,0.884173,182.240000,0
1471.280000,1455.530000,90.060000,18.000000,167.603889,1561.340000,1.072695,-105.810000,1
1349.860000,1363.430000,0.000000,12.000000,226.107500,1349.860000,0.990047,13.570000,1
1369.170000,1481.440000,208.400000,14.000000,218.500714,1577.570000,1.064890,-96.130000,1
1254.600000,1415.710000,73.170000,20.000000,137.174000,1327.770000,0.937883,87.940000,1
1217.700000,1586.020000,105.160000,19.000000,153.098947,1322.860000,0.834075,263.160000,0
1061.340000,1311.170000,78.310000,19.000000,128.990526,1139.650000,0.869186,171.520000,0
1157.970000,1515.690000,81.210000,16.000000,172.179375,1239.180000,0.817568,276.510000,0
939.810000,1330.660000,72.290000,11.000000,212.978182,1012.100000,0.760600,318.560000,0
899.480000,1168.980000,77.610000,15.000000,143.071333,977.090000,0.835848,191.890000,0
1129.760000,1455.010000,63.380000,16.000000,165.509375,1193.140000,0.820022,261.870000,0
944.650000,1349.620000,56.010000,11.000000,213.661818,1000.660000,0.741438,348.960000,0
852.710000,941.590000,42.540000,18.000000,102.046667,895.250000,0.950785,46.340000,1
703.720000,941.590000,38.360000,12.000000,140.305833,742.080000,0.788114,199.510000,0
1008.280000,1191.470000,39.570000,17.000000,131.724706,1047.850000,0.879460,143.620000,0
1407.670000,1389.300000,86.790000,13.000000,221.827692,1494.460000,1.075693,-105.160000,1
1027.430000,1100.320000,51.570000,15.000000,145.288000,1079.000000,0.980624,21.320000,1
979.480000,1246.110000,201.340000,17.000000,142.760588,1180.820000,0.947605,65.290000,1
1214.940000,1418.430000,158.980000,16.000000,174.521875,1373.920000,0.968620,44.510000,1
956.830000,1240.620000,159.570000,17.000000,138.648235,1116.400000,0.899873,124.220000,0
988.110000,1282.140000,77.330000,16.000000,146.723750,1065.440000,0.830986,216.700000,0
929.630000,1217.340000,152.880000,12.000000,191.654167,1082.510000,0.889242,134.830000,0
1078.920000,1180.660000,128.750000,20.000000,119.416500,1207.670000,1.022877,-27.010000,1
1578.800000,2181.820000,291.610000,10.000000,405.223000,1870.410000,0.857271,311.410000,0
1951.150000,2661.630000,469.870000,21.000000,242.030952,2421.020000,0.909601,240.610000,1
1893.590000,2592.580000,512.860000,18.000000,277.723889,2406.450000,0.928207,186.130000,1
2295.840000,2674.610000,232.500000,17.000000,306.055882,2528.340000,0.945312,146.270000,1
1682.430000,2218.200000,0.000000,14.000000,278.616429,1682.430000,0.758466,535.770000,0
1885.060000,2539.580000,650.420000,12.000000,422.921667,2535.480000,0.998386,4.100000,1
984.600000,1548.080000,141.650000,14.000000,191.023571,1126.250000,0.727514,421.830000,0
1108.070000,1537.230000,235.080000,19.000000,151.598947,1343.150000,0.873747,194.080000,0
1284.120000,1474.120000,215.250000,16.000000,185.843125,1499.370000,1.017129,-25.250000,1
1491.760000,1859.390000,211.950000,18.000000,197.950000,1703.710000,0.916274,155.680000,1
1179.460000,1575.440000,191.300000,20.000000,147.310000,1370.760000,0.870081,204.680000,0
1046.390000,1588.320000,207.650000,16.000000,177.647500,1254.040000,0.789539,334.280000,0
913.950000,1227.170000,69.290000,11.000000,200.946364,983.240000,0.801226,243.930000,0
1143.360000,1421.870000,73.130000,16.000000,164.897500,1216.490000,0.855556,205.380000,0
1136.630000,1471.270000,82.040000,17.000000,158.231765,1218.670000,0.828312,252.600000,0
1128.130000,1391.210000,78.340000,20.000000,129.884000,1206.470000,0.867209,184.740000,0
1406.650000,1734.670000,113.100000,10.000000,325.442000,1519.750000,0.876103,214.920000,0
883.430000,1299.130000,67.830000,14.000000,160.742143,951.260000,0.732228,347.870000,0
460.190000,522.340000,61.700000,19.000000,54.959474,521.890000,0.999138,0.450000,1
370.440000,563.200000,65.080000,16.000000,62.420000,435.520000,0.773295,127.680000,0
555.030000,660.500000,93.770000,13.000000,100.715385,648.800000,0.982286,11.700000,1
522.400000,568.530000,62.500000,15.000000,76.895333,584.900000,1.028794,-16.370000,1
404.440000,522.820000,78.390000,12.000000,83.804167,482.830000,0.923511,39.990000,1
407.110000,530.120000,53.150000,19.000000,52.125263,460.260000,0.868219,69.860000,0
1180.070000,1325.600000,85.040000,18.000000,143.928333,1265.110000,0.954368,60.490000,1
976.760000,1316.050000,87.420000,13.000000,183.094615,1064.180000,0.808617,251.870000,0
1076.970000,1322.280000,66.250000,19.000000,129.763158,1143.220000,0.864582,179.060000,0
1095.990000,1351.010000,121.810000,19.000000,135.200526,1217.800000,0.901400,133.210000,1
1247.650000,1468.100000,94.880000,16.000000,175.664375,1342.530000,0.914468,125.570000,1
1425.020000,1593.010000,144.810000,14.000000,225.917143,1569.830000,0.985449,23.180000,1
1883.300000,2012.320000,0.000000,17.000000,229.154118,1883.300000,0.935885,129.020000,1
1571.900000,1983.220000,480.950000,20.000000,201.803500,2052.850000,1.035110,-69.630000,1
1137.260000,1457.800000,116.510000,10.000000,271.157000,1253.770000,0.860043,204.030000,0
1563.180000,1721.280000,171.000000,11.000000,314.132727,1734.180000,1.007494,-12.900000,1
1613.640000,1882.260000,235.200000,20.000000,186.555000,1848.840000,0.982245,33.420000,1
1416.690000,1592.420000,169.500000,17.000000,186.977059,1586.190000,0.996088,6.230000,1
1727.990000,2130.010000,0.000000,20.000000,192.900000,1727.990000,0.811259,402.020000,0
2195.790000,2269.220000,0.000000,20.000000,223.250500,2195.790000,0.967641,73.430000,1
1584.390000,2008.920000,0.000000,9.000000,399.256667,1584.390000,0.788677,424.530000,0
1591.200000,1969.780000,0.000000,11.000000,323.725455,1591.200000,0.807806,378.580000,0
2050.050000,2157.000000,0.000000,18.000000,233.725000,2050.050000,0.950417,106.950000,1
1851.900000,1901.630000,0.000000,12.000000,312.794167,1851.900000,0.973849,49.730000,1
1587.130000,1926.190000,180.340000,16.000000,230.853750,1767.470000,0.917599,158.720000,1
1799.330000,2071.980000,160.610000,11.000000,366.538182,1959.940000,0.945926,112.040000,1
1844.360000,1910.170000,75.580000,12.000000,319.175833,1919.940000,1.005115,-9.770000,1
1886.570000,1812.530000,126.090000,16.000000,239.074375,2012.660000,1.110415,-200.130000,1
1478.880000,1830.960000,141.180000,14.000000,246.501429,1620.060000,0.884815,210.900000,0
1646.020000,1751.740000,173.120000,19.000000,187.941053,1819.140000,1.038476,-67.400000,1
2653.280000,2965.470000,0.000000,16.000000,351.171875,2653.280000,0.894725,312.190000,0
1813.180000,2587.390000,336.180000,20.000000,236.837500,2149.360000,0.830706,438.030000,0
2298.900000,2802.250000,169.130000,12.000000,439.190000,2468.030000,0.880732,334.220000,0
1898.620000,2365.000000,167.300000,15.000000,295.394667,2065.920000,0.873539,299.080000,0
1889.760000,2702.060000,193.230000,15.000000,319.003333,2082.990000,0.770890,619.070000,0
1978.100000,2813.290000,161.920000,19.000000,260.700526,2140.020000,0.760682,673.270000,0
1481.220000,2093.180000,277.910000,16.000000,240.769375,1759.130000,0.840410,334.050000,0
1356.830000,2135.240000,186.450000,14.000000,262.751429,1543.280000,0.722767,591.960000,0
1465.680000,2060.260000,245.560000,11.000000,342.863636,1711.240000,0.830594,349.020000,0
1611.890000,2278.270000,170.620000,18.000000,225.598889,1782.510000,0.782396,495.760000,0
1357.500000,2136.280000,0.000000,14.000000,249.555714,1357.500000,0.635450,778.780000,0
1579.470000,2410.560000,486.460000,20.000000,223.824500,2065.930000,0.857033,344.630000,0
1424.520000,1689.170000,166.160000,16.000000,204.990625,1590.680000,0.941693,98.490000,1
1387.840000,1773.270000,179.910000,12.000000,278.418333,1567.750000,0.884101,205.520000,0
1237.870000,1656.110000,104.400000,13.000000,230.644615,1342.270000,0.810496,313.840000,0
1015.590000,1387.540000,151.170000,20.000000,127.715000,1166.760000,0.840884,220.780000,0
1203.310000,1748.440000,149.350000,12.000000,258.425000,1352.660000,0.773638,395.780000,0
1217.870000,1575.580000,163.580000,15.000000,197.135333,1381.450000,0.876788,194.130000,0
837.190000,1114.760000,69.230000,15.000000,134.745333,906.420000,0.813108,208.340000,0
1008.860000,1325.780000,62.580000,18.000000,133.178889,1071.440000,0.808158,254.340000,0
860.860000,1206.990000,66.920000,17.000000,125.574706,927.780000,0.768672,279.210000,0
862.580000,1258.750000,81.530000,15.000000,146.857333,944.110000,0.750038,314.640000,0
670.650000,936.710000,66.020000,19.000000,88.072632,736.670000,0.786444,200.040000,0
943.560000,1322.940000,69.810000,11.000000,212.391818,1013.370000,0.765998,309.570000,0
525.830000,612.960000,105.140000,15.000000,82.928667,630.970000,1.029382,-18.010000,1
428.460000,631.980000,90.360000,20.000000,57.540000,518.820000,0.820944,113.160000,0
432.420000,561.450000,106.280000,20.000000,55.007500,538.700000,0.959480,22.750000,1
408.350000,537.410000,65.490000,17.000000,59.485294,473.840000,0.881710,63.570000,0
422.290000,489.320000,74.890000,20.000000,49.325000,497.180000,1.016063,-7.860000,1
362.380000,541.460000,57.690000,14.000000,68.680714,420.070000,0.775810,121.390000,0
2398.650000,2703.320000,291.950000,13.000000,414.916923,2690.600000,0.995295,12.720000,1
2690.900000,2817.600000,242.110000,12.000000,479.217500,2933.010000,1.040960,-115.410000,1
3083.130000,3124.380000,243.070000,10.000000,645.058000,3326.200000,1.064595,-201.820000,1
2292.230000,2912.180000,315.090000,15.000000,367.966667,2607.320000,0.895316,304.860000,0
2401.680000,2714.690000,0.000000,12.000000,426.364167,2401.680000,0.884698,313.010000,0
2326.240000,3094.380000,670.900000,12.000000,507.626667,2997.140000,0.968575,97.240000,1
1902.520000,2199.680000,30.060000,16.000000,258.266250,1932.580000,0.878573,267.100000,0
1530.050000,1782.990000,25.990000,18.000000,185.501667,1556.040000,0.872714,226.950000,0
2140.550000,2301.540000,34.940000,14.000000,319.787857,2175.490000,0.945232,126.050000,1
2310.940000,2427.760000,30.110000,13.000000,366.831538,2341.050000,0.964284,86.710000,1
1966.680000,2393.620000,35.890000,14.000000,314.013571,2002.570000,0.836628,391.050000,0
1806.790000,2254.820000,26.390000,12.000000,340.666667,1833.180000,0.813005,421.640000,0
937.990000,1086.470000,38.010000,13.000000,158.651538,976.000000,0.898322,110.470000,0
1026.240000,1197.930000,26.140000,16.000000,140.644375,1052.380000,0.878499,145.550000,0
830.440000,1009.500000,26.500000,12.000000,155.536667,856.940000,0.848876,152.560000,0
958.130000,1046.690000,26.500000,17.000000,119.489412,984.630000,0.940708,62.060000,1
1095.540000,1178.600000,32.600000,15.000000,153.782667,1128.140000,0.957186,50.460000,1
699.400000,983.670000,20.400000,16.000000,106.466875,719.800000,0.731749,263.870000,0
960.950000,1255.150000,54.520000,15.000000,151.374667,1015.470000,0.809043,239.680000,0
1082.880000,1366.780000,85.500000,12.000000,211.263333,1168.380000,0.854841,198.400000,0
812.920000,1075.440000,65.350000,19.000000,102.826842,878.270000,0.816661,197.170000,0
1181.770000,1343.260000,102.670000,15.000000,175.180000,1284.440000,0.956211,58.820000,1
999.230000,1100.330000,81.050000,14.000000,155.757857,1080.280000,0.981778,20.050000,1
1386.820000,1592.030000,96.900000,21.000000,146.464286,1483.720000,0.931967,108.310000,1
1520.060000,1673.920000,141.360000,13.000000,256.564615,1661.420000,0.992532,12.500000,1
1205.980000,1456.070000,141.580000,16.000000,175.226875,1347.560000,0.925477,108.510000,1
1409.880000,1405.370000,73.740000,12.000000,240.749167,1483.620000,1.055679,-78.250000,1
1196.470000,1352.270000,68.670000,19.000000,137.758421,1265.140000,0.935568,87.130000,1
1026.250000,1480.180000,134.250000,13.000000,203.129231,1160.500000,0.784026,319.680000,0
1244.690000,1429.100000,116.790000,14.000000,199.327143,1361.480000,0.952684,67.620000,1
1827.700000,1756.780000,14.080000,19.000000,189.397895,1841.780000,1.048384,-85.000000,1
1782.270000,1811.020000,13.420000,11.000000,327.882727,1795.690000,0.991535,15.330000,1
1505.620000,1650.280000,17.370000,20.000000,158.663500,1522.990000,0.922868,127.290000,1
1348.040000,1578.760000,10.850000,15.000000,195.843333,1358.890000,0.860732,219.870000,0
1960.710000,2031.210000,19.140000,14.000000,286.504286,1979.850000,0.974715,51.360000,1
1992.420000,2116.520000,25.030000,13.000000,317.997692,2017.450000,0.953192,99.070000,1
1747.460000,2087.570000,0.000000,11.000000,348.639091,1747.460000,0.837079,340.110000,0
2598.260000,2424.370000,0.000000,13.000000,386.356154,2598.260000,1.071726,-173.890000,1
1984.730000,2246.140000,0.000000,12.000000,352.572500,1984.730000,0.883618,261.410000,0
2005.800000,2222.060000,0.000000,19.000000,222.518947,2005.800000,0.902676,216.260000,1
2101.480000,2290.200000,0.000000,19.000000,231.141053,2101.480000,0.917597,188.720000,1
1990.330000,2188.320000,0.000000,11.000000,379.877273,1990.330000,0.909524,197.990000,1
1283.340000,1948.200000,171.280000,12.000000,283.568333,1454.620000,0.746648,493.580000,0
1244.910000,1607.710000,82.650000,10.000000,293.527000,1327.560000,0.825746,280.150000,0
1709.050000,1925.410000,152.450000,12.000000,315.575833,1861.500000,0.966807,63.910000,1
1435.030000,1965.070000,129.190000,11.000000,320.844545,1564.220000,0.796012,400.850000,0
1288.390000,1738.450000,115.810000,17.000000,184.861765,1404.200000,0.807731,334.250000,0
1447.560000,1920.520000,183.950000,19.000000,186.948947,1631.510000,0.849515,289.010000,0
1052.620000,1486.470000,126.690000,16.000000,166.611250,1179.310000,0.793363,307.160000,0
1218.630000,1582.840000,88.250000,16.000000,180.607500,1306.880000,0.825655,275.960000,0
1122.760000,1527.850000,170.240000,20.000000,141.042500,1293.000000,0.846287,234.850000,0
985.530000,1323.260000,0.000000,19.000000,121.515263,985.530000,0.744774,337.730000,0
816.010000,1275.370000,277.220000,17.000000,139.329412,1093.230000,0.857187,182.140000,0
770.850000,1187.540000,123.210000,13.000000,160.123077,894.060000,0.752867,293.480000,0
1707.040000,2184.060000,80.050000,19.000000,209.007895,1787.090000,0.818242,396.970000,0
1986.910000,2364.980000,64.850000,16.000000,276.046250,2051.760000,0.867559,313.220000,0
1890.210000,2236.490000,94.490000,15.000000,281.412667,1984.700000,0.887417,251.790000,0
1660.110000,2066.180000,69.330000,20.000000,189.781000,1729.440000,0.837023,336.740000,0
1826.970000,1983.200000,62.840000,19.000000,203.842632,1889.810000,0.952909,93.390000,1
2019.330000,2304.750000,92.230000,18.000000,245.350556,2111.560000,0.916177,193.190000,1
2060.640000,1950.290000,0.000000,19.000000,211.101579,2060.640000,1.056581,-110.350000,1
2017.020000,1993.120000,0.000000,19.000000,211.060000,2017.020000,1.011991,-23.900000,1
2072.710000,2098.610000,0.000000,18.000000,231.740000,2072.710000,0.987658,25.900000,1
2026.620000,1969.420000,0.000000,9.000000,444.004444,2026.620000,1.029044,-57.200000,1
2023.090000,1959.930000,0.000000,12.000000,331.918333,2023.090000,1.032226,-63.160000,1
2232.220000,2223.150000,0.000000,18.000000,247.520556,2232.220000,1.004080,-9.070000,1
1208.100000,1561.340000,107.360000,11.000000,261.527273,1315.460000,0.842520,245.880000,0
1253.220000,1548.420000,147.930000,20.000000,147.478500,1401.150000,0.904890,147.270000,1
1382.910000,1577.180000,155.270000,17.000000,183.256471,1538.180000,0.975272,39.000000,1
1284.220000,1507.410000,106.910000,10.000000,289.854000,1391.130000,0.922861,116.280000,1
1180.960000,1618.230000,147.860000,19.000000,155.107895,1328.820000,0.821156,289.410000,0
1238.540000,1605.900000,164.790000,19.000000,158.380526,1403.330000,0.873859,202.570000,0
1850.250000,2092.840000,157.090000,15.000000,273.345333,2007.340000,0.959146,85.500000,1
1701.640000,2347.320000,149.810000,14.000000,299.912143,1851.450000,0.788751,495.870000,0
1846.680000,2096.280000,78.490000,14.000000,287.246429,1925.170000,0.918374,171.110000,1
1721.420000,1846.300000,154.490000,21.000000,177.248095,1875.910000,1.016037,-29.610000,1
1908.760000,2213.740000,144.990000,21.000000,203.213810,2053.750000,0.927729,159.990000,1
2057.180000,2332.240000,203.270000,15.000000,306.179333,2260.450000,0.969218,71.790000,1
1380.670000,1768.650000,62.510000,19.000000,169.043684,1443.180000,0.815978,325.470000,0
1149.960000,1345.990000,51.880000,16.000000,159.239375,1201.840000,0.892904,144.150000,0
1520.400000,1834.590000,61.900000,18.000000,189.827222,1582.300000,0.862482,252.290000,0
1200.300000,1729.450000,62.980000,20.000000,149.636500,1263.280000,0.730452,466.170000,0
1481.840000,1778.170000,52.660000,19.000000,174.351053,1534.500000,0.862966,243.670000,0
1592.120000,1922.850000,71.290000,18.000000,199.236667,1663.410000,0.865075,259.440000,0
1882.430000,2187.570000,190.640000,18.000000,236.702222,2073.070000,0.947659,114.500000,1
1415.840000,1834.320000,123.860000,18.000000,187.445556,1539.700000,0.839385,294.620000,0
1608.070000,1773.610000,135.780000,19.000000,185.129474,1743.850000,0.983221,29.760000,1
1980.740000,2194.660000,202.990000,16.000000,273.649375,2183.730000,0.995020,10.930000,1
1298.230000,1788.510000,83.790000,10.000000,317.053000,1382.020000,0.772721,406.490000,0
1434.970000,1885.730000,172.140000,14.000000,249.488571,1607.110000,0.852248,278.620000,0
2018.880000,2634.490000,196.810000,16.000000,303.136250,2215.690000,0.841032,418.800000,0
2306.250000,2791.810000,362.660000,17.000000,321.218824,2668.910000,0.955978,122.900000,1
1553.670000,2557.070000,401.470000,11.000000,410.200909,1955.140000,0.764602,601.930000,0
2776.750000,2844.630000,453.800000,14.000000,433.941429,3230.550000,1.135666,-385.920000,1
2516.730000,2802.030000,367.500000,20.000000,284.313000,2884.230000,1.029336,-82.200000,1
2172.350000,3046.190000,364.940000,11.000000,507.589091,2537.290000,0.832939,508.900000,0
1549.430000,1787.820000,155.250000,14.000000,249.464286,1704.680000,0.953496,83.140000,1
1390.620000,1590.490000,109.280000,17.000000,181.787647,1499.900000,0.943043,90.590000,1
1731.410000,1827.580000,189.320000,17.000000,220.488824,1920.730000,1.050969,-93.150000,1
1573.960000,2030.020000,191.880000,13.000000,291.989231,1765.840000,0.869863,264.180000,0
1661.750000,1790.030000,199.390000,20.000000,182.558500,1861.140000,1.039726,-71.110000,1
1716.680000,1716.060000,200.400000,12.000000,302.761667,1917.080000,1.117140,-201.020000,1
1485.740000,1859.090000,0.000000,19.000000,176.043684,1485.740000,0.799176,373.350000,0
1225.720000,1745.650000,341.440000,21.000000,157.752857,1567.160000,0.897752,178.490000,0
1204.170000,1711.770000,272.240000,15.000000,212.545333,1476.410000,0.862505,235.360000,0
1322.850000,1662.530000,226.500000,18.000000,178.437778,1549.350000,0.931923,113.180000,1
1405.070000,1916.360000,252.290000,12.000000,297.810000,1657.360000,0.864848,259.000000,0
1374.770000,1889.850000,243.160000,21.000000,167.037143,1617.930000,0.856116,271.920000,0
1284.970000,1682.620000,143.580000,14.000000,222.226429,1428.550000,0.849003,254.070000,0
1168.380000,1589.570000,106.320000,10.000000,286.427000,1274.700000,0.801915,314.870000,0
1394.200000,1736.050000,149.580000,21.000000,156.182381,1543.780000,0.889249,192.270000,0
1450.360000,1536.780000,126.630000,11.000000,283.070000,1576.990000,1.026165,-40.210000,1
1390.980000,1657.810000,0.000000,17.000000,179.340588,1390.980000,0.839047,266.830000,0
1245.870000,1507.160000,252.040000,21.000000,143.098571,1497.910000,0.993863,9.250000,1
531.060000,702.780000,61.720000,20.000000,64.778000,592.780000,0.843479,110.000000,0
680.130000,842.280000,89.300000,21.000000,76.748095,769.430000,0.913509,72.850000,1
474.050000,570.650000,64.090000,18.000000,61.599444,538.140000,0.943030,32.510000,1
559.480000,661.180000,84.140000,12.000000,108.733333,643.620000,0.973441,17.560000,1
507.430000,749.540000,89.280000,19.000000,70.855263,596.710000,0.796102,152.830000,0
551.580000,685.080000,85.780000,21.000000,62.973333,637.360000,0.930344,47.720000,1
594.070000,764.960000,72.270000,15.000000,95.420000,666.340000,0.871078,98.620000,0
597.560000,810.760000,93.020000,10.000000,150.134000,690.580000,0.851769,120.180000,0
570.250000,702.420000,54.580000,17.000000,78.073529,624.830000,0.889539,77.590000,0
613.880000,742.610000,47.570000,17.000000,82.591765,661.450000,0.890710,81.160000,0
577.480000,753.640000,59.880000,15.000000,92.733333,637.360000,0.845709,116.280000,0
580.210000,674.610000,63.470000,12.000000,109.857500,643.680000,0.954151,30.930000,1
1240.560000,1419.430000,44.550000,15.000000,180.302667,1285.110000,0.905370,134.320000,1
1197.340000,1398.720000,27.040000,21.000000,124.909524,1224.380000,0.875357,174.340000,0
1049.260000,1509.110000,49.630000,20.000000,130.400000,1098.890000,0.728171,410.220000,0
1340.480000,1625.980000,41.960000,17.000000,176.965882,1382.440000,0.850220,243.540000,0
1711.170000,1542.510000,45.700000,10.000000,329.938000,1756.870000,1.138968,-214.360000,1
1302.570000,1549.350000,48.300000,14.000000,207.158571,1350.870000,0.871895,198.480000,0
1803.030000,2565.160000,241.990000,17.000000,271.187059,2045.020000,0.797229,520.140000,0
1784.120000,2495.940000,245.530000,16.000000,282.849375,2029.650000,0.813181,466.290000,0
1955.430000,2284.860000,179.570000,18.000000,245.547778,2135.000000,0.934412,149.860000,1
1777.450000,2299.990000,265.780000,12.000000,361.935000,2043.230000,0.888365,256.760000,0
1493.830000,2150.590000,189.570000,17.000000,225.528824,1683.400000,0.782762,467.190000,0
1566.130000,2162.170000,165.700000,20.000000,194.700000,1731.830000,0.800968,430.340000,0
1049.160000,1552.090000,114.120000,17.000000,159.727647,1163.280000,0.749493,388.810000,0
1199.940000,1593.440000,128.850000,20.000000,146.111500,1328.790000,0.833913,264.650000,0
1447.670000,1751.090000,93.220000,13.000000,253.229231,1540.890000,0.879960,210.200000,0
1241.920000,1572.520000,149.070000,11.000000,269.410000,1390.990000,0.884561,181.530000,0
1219.020000,1684.340000,189.920000,15.000000,206.218667,1408.940000,0.836494,275.400000,0
1157.760000,1413.890000,0.000000,20.000000,128.582500,1157.760000,0.818847,256.130000,0
0.000000,0.000000,121.400000,1.000000,121.400000,121.400000,0.000000,-121.400000,1
1512.840000,1893.850000,204.410000,16.000000,225.693750,1717.250000,0.906751,176.600000,1
1430.700000,1765.870000,232.470000,16.000000,214.315000,1663.170000,0.941842,102.700000,1
1572.320000,1737.990000,191.810000,11.000000,318.374545,1764.130000,1.015040,-26.140000,1
1556.470000,1599.960000,0.000000,17.000000,185.672353,1556.470000,0.972818,43.490000,1
1677.770000,1828.020000,341.670000,16.000000,240.466250,2019.440000,1.104714,-191.420000,1
1191.950000,1601.450000,170.320000,12.000000,246.976667,1362.270000,0.850648,239.180000,0
391.060000,529.770000,0.000000,20.000000,46.041500,391.060000,0.738169,138.710000,0
514.080000,638.930000,129.840000,11.000000,116.622727,643.920000,1.007810,-4.990000,1
549.910000,691.340000,82.030000,18.000000,73.515556,631.940000,0.914080,59.400000,1
462.650000,594.380000,58.590000,21.000000,53.124762,521.240000,0.876947,73.140000,0
512.950000,654.060000,107.190000,13.000000,98.015385,620.140000,0.948139,33.920000,1
440.840000,687.430000,68.410000,10.000000,119.668000,509.250000,0.740803,178.180000,0
1904.330000,2119.510000,0.000000,14.000000,287.417143,1904.330000,0.898477,215.180000,0
1749.010000,2079.240000,0.000000,18.000000,212.680556,1749.010000,0.841178,330.230000,0
1794.970000,2408.470000,0.000000,18.000000,233.524444,1794.970000,0.745274,613.500000,0
2111.840000,2598.450000,0.000000,17.000000,277.075882,2111.840000,0.812731,486.610000,0
2261.860000,2293.010000,0.000000,9.000000,506.096667,2261.860000,0.986415,31.150000,1
2289.140000,2700.690000,0.000000,14.000000,356.416429,2289.140000,0.847613,411.550000,0
1040.470000,1203.180000,8.290000,14.000000,160.852857,1048.760000,0.871657,154.420000,0
860.550000,1226.960000,9.660000,21.000000,99.865238,870.210000,0.709241,356.750000,0
940.480000,1066.150000,6.300000,14.000000,143.780714,946.780000,0.888036,119.370000,0
1016.170000,1218.580000,9.210000,16.000000,140.247500,1025.380000,0.841455,193.200000,0
950.130000,1307.770000,8.320000,15.000000,151.081333,958.450000,0.732889,349.320000,0
986.480000,1071.150000,9.870000,19.000000,108.815789,996.350000,0.930169,74.800000,1
